 Set GAUSS_PDEF to "16".
 Entering Gaussian System, Link 0=g16
 Initial command:
 /opt/apps/eb/software/Gaussian/16.C.02-AVX2/g16/l1.exe "/users/fsw516/Gaussian_Submission/Gau-3497942.inp" -scrdir="/users/fsw516/Gaussian_Submission/"
 Default is to use a total of  16 processors:
                               16 via shared-memory
                                1 via Linda
 Entering Link 1 = /opt/apps/eb/software/Gaussian/16.C.02-AVX2/g16/l1.exe PID=   3497943.
  
 Copyright (c) 1988-2021, Gaussian, Inc.  All Rights Reserved.
  
 This is part of the Gaussian(R) 16 program.  It is based on
 the Gaussian(R) 09 system (copyright 2009, Gaussian, Inc.),
 the Gaussian(R) 03 system (copyright 2003, Gaussian, Inc.),
 the Gaussian(R) 98 system (copyright 1998, Gaussian, Inc.),
 the Gaussian(R) 94 system (copyright 1995, Gaussian, Inc.),
 the Gaussian 92(TM) system (copyright 1992, Gaussian, Inc.),
 the Gaussian 90(TM) system (copyright 1990, Gaussian, Inc.),
 the Gaussian 88(TM) system (copyright 1988, Gaussian, Inc.),
 the Gaussian 86(TM) system (copyright 1986, Carnegie Mellon
 University), and the Gaussian 82(TM) system (copyright 1983,
 Carnegie Mellon University). Gaussian is a federally registered
 trademark of Gaussian, Inc.
  
 This software contains proprietary and confidential information,
 including trade secrets, belonging to Gaussian, Inc.
  
 This software is provided under written license and may be
 used, copied, transmitted, or stored only in accord with that
 written license.
  
 The following legend is applicable only to US Government
 contracts under FAR:
  
                    RESTRICTED RIGHTS LEGEND
  
 Use, reproduction and disclosure by the US Government is
 subject to restrictions as set forth in subparagraphs (a)
 and (c) of the Commercial Computer Software - Restricted
 Rights clause in FAR 52.227-19.
  
 Gaussian, Inc.
 340 Quinnipiac St., Bldg. 40, Wallingford CT 06492
  
  
 ---------------------------------------------------------------
 Warning -- This program may not be used in any manner that
 competes with the business of Gaussian, Inc. or will provide
 assistance to any competitor of Gaussian, Inc.  The licensee
 of this program is prohibited from giving any competitor of
 Gaussian, Inc. access to this program.  By using this program,
 the user acknowledges that Gaussian, Inc. is engaged in the
 business of creating and licensing software in the field of
 computational chemistry and represents and warrants to the
 licensee that it is not a competitor of Gaussian, Inc. and that
 it will not use this program in any manner prohibited above.
 ---------------------------------------------------------------
  

 Cite this work as:
 Gaussian 16, Revision C.02,
 M. J. Frisch, G. W. Trucks, H. B. Schlegel, G. E. Scuseria, 
 M. A. Robb, J. R. Cheeseman, G. Scalmani, V. Barone, 
 G. A. Petersson, H. Nakatsuji, X. Li, M. Caricato, A. V. Marenich, 
 J. Bloino, B. G. Janesko, R. Gomperts, B. Mennucci, H. P. Hratchian, 
 J. V. Ortiz, A. F. Izmaylov, J. L. Sonnenberg, D. Williams-Young, 
 F. Ding, F. Lipparini, F. Egidi, J. Goings, B. Peng, A. Petrone, 
 T. Henderson, D. Ranasinghe, V. G. Zakrzewski, J. Gao, N. Rega, 
 G. Zheng, W. Liang, M. Hada, M. Ehara, K. Toyota, R. Fukuda, 
 J. Hasegawa, M. Ishida, T. Nakajima, Y. Honda, O. Kitao, H. Nakai, 
 T. Vreven, K. Throssell, J. A. Montgomery, Jr., J. E. Peralta, 
 F. Ogliaro, M. J. Bearpark, J. J. Heyd, E. N. Brothers, K. N. Kudin, 
 V. N. Staroverov, T. A. Keith, R. Kobayashi, J. Normand, 
 K. Raghavachari, A. P. Rendell, J. C. Burant, S. S. Iyengar, 
 J. Tomasi, M. Cossi, J. M. Millam, M. Klene, C. Adamo, R. Cammi, 
 J. W. Ochterski, R. L. Martin, K. Morokuma, O. Farkas, 
 J. B. Foresman, and D. J. Fox, Gaussian, Inc., Wallingford CT, 2019.
 
 ******************************************
 Gaussian 16:  ES64L-G16RevC.02  7-Dec-2021
                12-May-2026 
 ******************************************
 %mem=30GB
 %nprocshared=16
 Will use up to   16 processors via shared memory.
 -------------------------------------------------------
 #p opt wb97xd/6-31+g(d,p) int=(grid=ultrafine,acc2e=12)
 -------------------------------------------------------
 1/18=20,19=15,26=4,38=1/1,3;
 2/9=110,12=2,17=6,18=5,40=1/2;
 3/5=1,6=6,7=111,11=2,25=1,27=12,30=1,71=1,74=-58,75=-5/1,2,3;
 4//1;
 5/5=2,38=5,87=12/2;
 6/7=2,8=2,9=2,10=2,28=1,87=12/1;
 7/87=12/1,2,3,16;
 1/18=20,19=15,26=4/3(2);
 2/9=110/2;
 99//99;
 2/9=110/2;
 3/5=1,6=6,7=111,11=2,25=1,27=12,30=1,71=1,74=-58,75=-5/1,2,3;
 4/5=5,16=3,69=1/1;
 5/5=2,38=5,87=12/2;
 7/87=12/1,2,3,16;
 1/18=20,19=15,26=4/3(-5);
 2/9=110/2;
 6/7=2,8=2,9=2,10=2,19=2,28=1,87=12/1;
 99/9=1/99;
 Leave Link    1 at Tue May 12 14:11:49 2026, MaxMem=  4026531840 cpu:               0.2 elap:               0.1
 (Enter /opt/apps/eb/software/Gaussian/16.C.02-AVX2/g16/l101.exe)
 ----------------------------
 3-chloro-1,2-propylene oxide
 ----------------------------
 Symbolic Z-matrix:
 Charge =  0 Multiplicity = 1
 C                     2.10716   0.30003  -0.00535 
 H                     2.31059   0.9111   -0.81504 
 H                     2.92944   0.22532   0.62786 
 C                     0.73622   0.03704   0.43469 
 H                     0.64287  -0.1409    1.54226 
 C                    -0.35969   0.75703  -0.15991 
 H                    -0.16999   0.96774  -1.26655 
 H                    -0.5778    1.77137   0.37552 
 Cl                   -1.88128  -0.18638   0.08343 
 O                     1.49681  -0.9926   -0.29111 
 
 ITRead=  0  0  0  0  0  0  0  0  0  0
 MicOpt= -1 -1 -1 -1 -1 -1 -1 -1 -1 -1
 NAtoms=     10 NQM=       10 NQMF=       0 NMMI=      0 NMMIF=      0
                NMic=       0 NMicF=      0.
                    Isotopes and Nuclear Properties:
 (Nuclear quadrupole moments (NQMom) in fm**2, nuclear magnetic moments (NMagM)
  in nuclear magnetons)

  Atom         1           2           3           4           5           6           7           8           9          10
 IAtWgt=          12           1           1          12           1          12           1           1          35          16
 AtmWgt=  12.0000000   1.0078250   1.0078250  12.0000000   1.0078250  12.0000000   1.0078250   1.0078250  34.9688527  15.9949146
 NucSpn=           0           1           1           0           1           0           1           1           3           0
 AtZEff=  -0.0000000  -0.0000000  -0.0000000  -0.0000000  -0.0000000  -0.0000000  -0.0000000  -0.0000000  -0.0000000  -0.0000000
 NQMom=    0.0000000   0.0000000   0.0000000   0.0000000   0.0000000   0.0000000   0.0000000   0.0000000  -8.1650000   0.0000000
 NMagM=    0.0000000   2.7928460   2.7928460   0.0000000   2.7928460   0.0000000   2.7928460   2.7928460   0.8218740   0.0000000
 AtZNuc=   6.0000000   1.0000000   1.0000000   6.0000000   1.0000000   6.0000000   1.0000000   1.0000000  17.0000000   8.0000000
 Leave Link  101 at Tue May 12 14:11:49 2026, MaxMem=  4026531840 cpu:               0.1 elap:               0.1
 (Enter /opt/apps/eb/software/Gaussian/16.C.02-AVX2/g16/l103.exe)

 GradGradGradGradGradGradGradGradGradGradGradGradGradGradGradGradGradGrad
 Berny optimization.
 Initialization pass.
                           ----------------------------
                           !    Initial Parameters    !
                           ! (Angstroms and Degrees)  !
 --------------------------                            --------------------------
 ! Name  Definition              Value          Derivative Info.                !
 --------------------------------------------------------------------------------
 ! R1    R(1,2)                  1.0346         estimate D2E/DX2                !
 ! R2    R(1,3)                  1.0405         estimate D2E/DX2                !
 ! R3    R(1,4)                  1.4636         estimate D2E/DX2                !
 ! R4    R(1,10)                 1.4578         estimate D2E/DX2                !
 ! R5    R(4,5)                  1.1257         estimate D2E/DX2                !
 ! R6    R(4,6)                  1.4398         estimate D2E/DX2                !
 ! R7    R(4,10)                 1.4715         estimate D2E/DX2                !
 ! R8    R(6,7)                  1.1424         estimate D2E/DX2                !
 ! R9    R(6,8)                  1.1675         estimate D2E/DX2                !
 ! R10   R(6,9)                  1.8068         estimate D2E/DX2                !
 ! A1    A(2,1,3)              111.302          estimate D2E/DX2                !
 ! A2    A(2,1,4)              121.7073         estimate D2E/DX2                !
 ! A3    A(2,1,10)             116.9134         estimate D2E/DX2                !
 ! A4    A(3,1,4)              122.9802         estimate D2E/DX2                !
 ! A5    A(3,1,10)             112.7371         estimate D2E/DX2                !
 ! A6    A(1,4,5)              113.6967         estimate D2E/DX2                !
 ! A7    A(1,4,6)              119.93           estimate D2E/DX2                !
 ! A8    A(5,4,6)              114.9776         estimate D2E/DX2                !
 ! A9    A(5,4,10)             114.681          estimate D2E/DX2                !
 ! A10   A(6,4,10)             122.6587         estimate D2E/DX2                !
 ! A11   A(4,6,7)              111.4626         estimate D2E/DX2                !
 ! A12   A(4,6,8)              112.7841         estimate D2E/DX2                !
 ! A13   A(4,6,9)              108.9223         estimate D2E/DX2                !
 ! A14   A(7,6,8)              108.3627         estimate D2E/DX2                !
 ! A15   A(7,6,9)              111.5077         estimate D2E/DX2                !
 ! A16   A(8,6,9)              103.5645         estimate D2E/DX2                !
 ! D1    D(2,1,4,5)           -149.1056         estimate D2E/DX2                !
 ! D2    D(2,1,4,6)             -7.4038         estimate D2E/DX2                !
 ! D3    D(3,1,4,5)              6.3915         estimate D2E/DX2                !
 ! D4    D(3,1,4,6)            148.0933         estimate D2E/DX2                !
 ! D5    D(1,4,6,7)             34.7764         estimate D2E/DX2                !
 ! D6    D(1,4,6,8)            -87.3841         estimate D2E/DX2                !
 ! D7    D(1,4,6,9)            158.2278         estimate D2E/DX2                !
 ! D8    D(5,4,6,7)            176.0168         estimate D2E/DX2                !
 ! D9    D(5,4,6,8)             53.8563         estimate D2E/DX2                !
 ! D10   D(5,4,6,9)            -60.5318         estimate D2E/DX2                !
 ! D11   D(10,4,6,7)           -36.2319         estimate D2E/DX2                !
 ! D12   D(10,4,6,8)          -158.3925         estimate D2E/DX2                !
 ! D13   D(10,4,6,9)            87.2194         estimate D2E/DX2                !
 --------------------------------------------------------------------------------
 Trust Radius=3.00D-01 FncErr=1.00D-07 GrdErr=1.00D-06 EigMax=2.50D+02 EigMin=1.00D-04
 Number of steps in this run=     49 maximum allowed number of steps=    100.
 GradGradGradGradGradGradGradGradGradGradGradGradGradGradGradGradGradGrad

 Leave Link  103 at Tue May 12 14:11:49 2026, MaxMem=  4026531840 cpu:               0.1 elap:               0.0
 (Enter /opt/apps/eb/software/Gaussian/16.C.02-AVX2/g16/l202.exe)
                          Input orientation:                          
 ---------------------------------------------------------------------
 Center     Atomic      Atomic             Coordinates (Angstroms)
 Number     Number       Type             X           Y           Z
 ---------------------------------------------------------------------
      1          6           0        2.107161    0.300025   -0.005347
      2          1           0        2.310586    0.911103   -0.815039
      3          1           0        2.929442    0.225317    0.627860
      4          6           0        0.736223    0.037035    0.434685
      5          1           0        0.642868   -0.140895    1.542257
      6          6           0       -0.359690    0.757032   -0.159913
      7          1           0       -0.169985    0.967742   -1.266546
      8          1           0       -0.577804    1.771368    0.375524
      9         17           0       -1.881279   -0.186376    0.083428
     10          8           0        1.496808   -0.992599   -0.291109
 ---------------------------------------------------------------------
                    Distance matrix (angstroms):
                    1          2          3          4          5
     1  C    0.000000
     2  H    1.034601   0.000000
     3  H    1.040518   1.713255   0.000000
     4  C    1.463647   2.191900   2.209746   0.000000
     5  H    2.175694   3.073244   2.489710   1.125651   0.000000
     6  C    2.513583   2.753780   3.423696   1.439780   2.169972
     7  H    2.687352   2.521963   3.707616   2.140471   3.127168
     8  H    3.085280   3.240416   3.841188   2.176713   2.551089
     9  Cl   4.018970   4.425318   4.858903   2.650398   2.915745
    10  O    1.457761   2.135607   2.092908   1.471534   2.194503
                    6          7          8          9         10
     6  C    0.000000
     7  H    1.142376   0.000000
     8  H    1.167538   1.873106   0.000000
     9  Cl   1.806783   2.466363   2.370048   0.000000
    10  O    2.554409   2.751838   3.519649   3.493100   0.000000
 Stoichiometry    C3H5ClO
 Framework group  C1[X(C3H5ClO)]
 Deg. of freedom    24
 Full point group                 C1      NOp   1
 Largest Abelian subgroup         C1      NOp   1
 Largest concise Abelian subgroup C1      NOp   1
                         Standard orientation:                         
 ---------------------------------------------------------------------
 Center     Atomic      Atomic             Coordinates (Angstroms)
 Number     Number       Type             X           Y           Z
 ---------------------------------------------------------------------
      1          6           0        2.099867    0.358797    0.025023
      2          1           0        2.311961    0.974696   -0.778770
      3          1           0        2.906812    0.299771    0.679267
      4          6           0        0.723513    0.068087    0.429252
      5          1           0        0.605092   -0.112889    1.533930
      6          6           0       -0.370774    0.766785   -0.193101
      7          1           0       -0.156731    0.982451   -1.294327
      8          1           0       -0.622839    1.775987    0.337105
      9         17           0       -1.879051   -0.206989    0.010201
     10          8           0        1.522991   -0.945403   -0.277209
 ---------------------------------------------------------------------
 Rotational constants (GHZ):          13.0898594           2.0655982           1.9058593
 Leave Link  202 at Tue May 12 14:11:49 2026, MaxMem=  4026531840 cpu:               0.0 elap:               0.0
 (Enter /opt/apps/eb/software/Gaussian/16.C.02-AVX2/g16/l301.exe)
 Standard basis: 6-31+G(d,p) (6D, 7F)
 Ernie: Thresh=  0.10000D-02 Tol=  0.10000D-05 Strict=F.
 There are   124 symmetry adapted cartesian basis functions of A   symmetry.
 There are   124 symmetry adapted basis functions of A   symmetry.
   124 basis functions,   219 primitive gaussians,   124 cartesian basis functions
    24 alpha electrons       24 beta electrons
       nuclear repulsion energy       215.3032728373 Hartrees.
 IExCor= 4639 DFT=T Ex+Corr=wB97XD ExCW=0 ScaHFX=  1.000000
 ScaDFX=  1.000000  1.000000  1.000000  1.000000 ScalE2=  1.000000  1.000000
 IRadAn=      5 IRanWt=     -1 IRanGd=            0 ICorTp=0 IEmpDi=121
 HFx  wShort=  0.000000 wLong=  0.200000 cFull=  0.222036 cShort=  0.000000 cLong=  0.777964
 DFx  wShort=  0.000000 wLong=  0.200000 cFull=  0.000000 cShort=  0.000000 cLong=  1.000000
 NAtoms=   10 NActive=   10 NUniq=   10 SFac= 1.00D+00 NAtFMM=   60 NAOKFM=F Big=F
 Integral buffers will be    131072 words long.
 Raffenetti 2 integral format.
 Two-electron integral symmetry is turned on.
 R6Disp:  Grimme-D2 Dispersion energy=       -0.0033253083 Hartrees.
 Nuclear repulsion after empirical dispersion term =      215.2999475290 Hartrees.
 Leave Link  301 at Tue May 12 14:11:49 2026, MaxMem=  4026531840 cpu:               0.1 elap:               0.0
 (Enter /opt/apps/eb/software/Gaussian/16.C.02-AVX2/g16/l302.exe)
 NPDir=0 NMtPBC=     1 NCelOv=     1 NCel=       1 NClECP=     1 NCelD=      1
         NCelK=      1 NCelE2=     1 NClLst=     1 CellRange=     0.0.
 One-electron integrals computed using PRISM.
 One-electron integral symmetry used in STVInt
 NBasis=   124 RedAO= T EigKep=  5.99D-05  NBF=   124
 NBsUse=   124 1.00D-06 EigRej= -1.00D+00 NBFU=   124
 Precomputing XC quadrature grid using
 IXCGrd= 4 IRadAn=           5 IRanWt=          -1 IRanGd=           0 AccXCQ= 1.00D-12.
 Generated NRdTot=       0 NPtTot=           0 NUsed=           0 NTot=          32
 NSgBfM=   124   124   124   124   124 MxSgAt=    10 MxSgA2=    10.
 Leave Link  302 at Tue May 12 14:11:50 2026, MaxMem=  4026531840 cpu:               1.3 elap:               0.2
 (Enter /opt/apps/eb/software/Gaussian/16.C.02-AVX2/g16/l303.exe)
 DipDrv:  MaxL=1.
 Leave Link  303 at Tue May 12 14:11:50 2026, MaxMem=  4026531840 cpu:               0.2 elap:               0.1
 (Enter /opt/apps/eb/software/Gaussian/16.C.02-AVX2/g16/l401.exe)
 ExpMin= 4.38D-02 ExpMax= 2.52D+04 ExpMxC= 3.78D+03 IAcc=3 IRadAn=         5 AccDes= 0.00D+00
 Harris functional with IExCor= 4639 and IRadAn=       5 diagonalized for initial guess.
 HarFok:  IExCor= 4639 AccDes= 0.00D+00 IRadAn=         5 IDoV= 1 UseB2=F ITyADJ=14
 ICtDFT=  3500011 ScaDFX=  1.000000  1.000000  1.000000  1.000000
 FoFCou: FMM=F IPFlag=           0 FMFlag=      100000 FMFlg1=           0
         NFxFlg=           0 DoJE=T BraDBF=F KetDBF=T FulRan=T
         wScrn=  0.000000 ICntrl=       500 IOpCl=  0 I1Cent=   200000004 NGrid=           0
         NMat0=    1 NMatS0=      1 NMatT0=    0 NMatD0=    1 NMtDS0=    0 NMtDT0=    0
 Petite list used in FoFCou.
 Harris En= -636.854532530529    
 JPrj=0 DoOrth=F DoCkMO=F.
 Leave Link  401 at Tue May 12 14:11:50 2026, MaxMem=  4026531840 cpu:               2.6 elap:               0.4
 (Enter /opt/apps/eb/software/Gaussian/16.C.02-AVX2/g16/l502.exe)
 Keep R1 ints in memory in canonical form, NReq=76270117.
 FoFCou: FMM=F IPFlag=           0 FMFlag=           0 FMFlg1=           0
         NFxFlg=           0 DoJE=F BraDBF=F KetDBF=F FulRan=T
         wScrn=  0.000000 ICntrl=       600 IOpCl=  0 I1Cent=           0 NGrid=           0
         NMat0=    1 NMatS0=   7750 NMatT0=    0 NMatD0=    1 NMtDS0=    0 NMtDT0=    0
 Symmetry not used in FoFCou.
 Two-electron integral symmetry not used.
 Closed shell SCF:
 Using DIIS extrapolation, IDIIS=  1040.
 NGot=  4026531840 LenX=  3966427239 LenY=  3966411422
 Requested convergence on RMS density matrix=1.00D-08 within 128 cycles.
 Requested convergence on MAX density matrix=1.00D-06.
 Requested convergence on             energy=1.00D-06.
 No special actions if energy rises.

 Cycle   1  Pass 1  IDiag  1:
 E= -652.420319097847    
 DIIS: error= 1.08D-01 at cycle   1 NSaved=   1.
 NSaved= 1 IEnMin= 1 EnMin= -652.420319097847     IErMin= 1 ErrMin= 1.08D-01
 ErrMax= 1.08D-01  0.00D+00 EMaxC= 1.00D-01 BMatC= 4.64D-01 BMatP= 4.64D-01
 IDIUse=3 WtCom= 0.00D+00 WtEn= 1.00D+00
 Coeff-Com:  0.100D+01
 Coeff-En:   0.100D+01
 Coeff:      0.100D+01
 Gap=     0.590 Goal=   None    Shift=    0.000
 GapD=    0.590 DampG=2.000 DampE=0.250 DampFc=0.5000 IDamp=-1.
 Damping current iteration by 5.00D-01
 RMSDP=1.52D-02 MaxDP=7.93D-01              OVMax= 1.53D-01

 Cycle   2  Pass 1  IDiag  1:
 E= -652.521435133555     Delta-E=       -0.101116035708 Rises=F Damp=T
 DIIS: error= 4.27D-02 at cycle   2 NSaved=   2.
 NSaved= 2 IEnMin= 2 EnMin= -652.521435133555     IErMin= 2 ErrMin= 4.27D-02
 ErrMax= 4.27D-02  0.00D+00 EMaxC= 1.00D-01 BMatC= 6.57D-02 BMatP= 4.64D-01
 IDIUse=3 WtCom= 5.73D-01 WtEn= 4.27D-01
 Coeff-Com: -0.300D+00 0.130D+01
 Coeff-En:   0.000D+00 0.100D+01
 Coeff:     -0.172D+00 0.117D+01
 Gap=     0.490 Goal=   None    Shift=    0.000
 RMSDP=3.83D-03 MaxDP=1.09D-01 DE=-1.01D-01 OVMax= 1.08D-01

 Cycle   3  Pass 1  IDiag  1:
 E= -652.605151621883     Delta-E=       -0.083716488328 Rises=F Damp=F
 DIIS: error= 8.34D-03 at cycle   3 NSaved=   3.
 NSaved= 3 IEnMin= 3 EnMin= -652.605151621883     IErMin= 3 ErrMin= 8.34D-03
 ErrMax= 8.34D-03  0.00D+00 EMaxC= 1.00D-01 BMatC= 2.02D-02 BMatP= 6.57D-02
 IDIUse=3 WtCom= 9.17D-01 WtEn= 8.34D-02
 Coeff-Com: -0.198D+00 0.553D+00 0.645D+00
 Coeff-En:   0.000D+00 0.000D+00 0.100D+01
 Coeff:     -0.182D+00 0.507D+00 0.675D+00
 Gap=     0.453 Goal=   None    Shift=    0.000
 RMSDP=2.00D-03 MaxDP=9.43D-02 DE=-8.37D-02 OVMax= 3.18D-02

 Cycle   4  Pass 1  IDiag  1:
 E= -652.618611684481     Delta-E=       -0.013460062598 Rises=F Damp=F
 DIIS: error= 2.54D-03 at cycle   4 NSaved=   4.
 NSaved= 4 IEnMin= 4 EnMin= -652.618611684481     IErMin= 4 ErrMin= 2.54D-03
 ErrMax= 2.54D-03  0.00D+00 EMaxC= 1.00D-01 BMatC= 2.23D-03 BMatP= 2.02D-02
 IDIUse=3 WtCom= 9.75D-01 WtEn= 2.54D-02
 Coeff-Com: -0.440D-01 0.931D-01 0.298D+00 0.653D+00
 Coeff-En:   0.000D+00 0.000D+00 0.448D-01 0.955D+00
 Coeff:     -0.428D-01 0.907D-01 0.292D+00 0.661D+00
 Gap=     0.445 Goal=   None    Shift=    0.000
 RMSDP=5.38D-04 MaxDP=1.37D-02 DE=-1.35D-02 OVMax= 8.49D-03

 Cycle   5  Pass 1  IDiag  1:
 E= -652.620371545746     Delta-E=       -0.001759861265 Rises=F Damp=F
 DIIS: error= 2.07D-04 at cycle   5 NSaved=   5.
 NSaved= 5 IEnMin= 5 EnMin= -652.620371545746     IErMin= 5 ErrMin= 2.07D-04
 ErrMax= 2.07D-04  0.00D+00 EMaxC= 1.00D-01 BMatC= 2.04D-05 BMatP= 2.23D-03
 IDIUse=3 WtCom= 9.98D-01 WtEn= 2.07D-03
 Coeff-Com: -0.303D-02 0.321D-02 0.541D-01 0.163D+00 0.782D+00
 Coeff-En:   0.000D+00 0.000D+00 0.000D+00 0.000D+00 0.100D+01
 Coeff:     -0.302D-02 0.320D-02 0.540D-01 0.163D+00 0.783D+00
 Gap=     0.433 Goal=   None    Shift=    0.000
 RMSDP=1.37D-04 MaxDP=5.51D-03 DE=-1.76D-03 OVMax= 1.62D-03

 Cycle   6  Pass 1  IDiag  1:
 E= -652.620396234073     Delta-E=       -0.000024688328 Rises=F Damp=F
 DIIS: error= 6.73D-05 at cycle   6 NSaved=   6.
 NSaved= 6 IEnMin= 6 EnMin= -652.620396234073     IErMin= 6 ErrMin= 6.73D-05
 ErrMax= 6.73D-05  0.00D+00 EMaxC= 1.00D-01 BMatC= 2.69D-06 BMatP= 2.04D-05
 IDIUse=1 WtCom= 1.00D+00 WtEn= 0.00D+00
 Coeff-Com:  0.719D-02-0.157D-01-0.331D-01-0.611D-01 0.199D+00 0.904D+00
 Coeff:      0.719D-02-0.157D-01-0.331D-01-0.611D-01 0.199D+00 0.904D+00
 Gap=     0.433 Goal=   None    Shift=    0.000
 RMSDP=6.62D-05 MaxDP=1.76D-03 DE=-2.47D-05 OVMax= 7.64D-04

 Cycle   7  Pass 1  IDiag  1:
 E= -652.620400284738     Delta-E=       -0.000004050665 Rises=F Damp=F
 DIIS: error= 1.50D-05 at cycle   7 NSaved=   7.
 NSaved= 7 IEnMin= 7 EnMin= -652.620400284738     IErMin= 7 ErrMin= 1.50D-05
 ErrMax= 1.50D-05  0.00D+00 EMaxC= 1.00D-01 BMatC= 7.80D-08 BMatP= 2.69D-06
 IDIUse=1 WtCom= 1.00D+00 WtEn= 0.00D+00
 Coeff-Com:  0.108D-02-0.218D-02-0.749D-02-0.165D-01-0.196D-02 0.155D+00
 Coeff-Com:  0.872D+00
 Coeff:      0.108D-02-0.218D-02-0.749D-02-0.165D-01-0.196D-02 0.155D+00
 Coeff:      0.872D+00
 Gap=     0.433 Goal=   None    Shift=    0.000
 RMSDP=1.36D-05 MaxDP=6.33D-04 DE=-4.05D-06 OVMax= 1.45D-04

 Cycle   8  Pass 1  IDiag  1:
 E= -652.620400404458     Delta-E=       -0.000000119720 Rises=F Damp=F
 DIIS: error= 3.96D-06 at cycle   8 NSaved=   8.
 NSaved= 8 IEnMin= 8 EnMin= -652.620400404458     IErMin= 8 ErrMin= 3.96D-06
 ErrMax= 3.96D-06  0.00D+00 EMaxC= 1.00D-01 BMatC= 6.97D-09 BMatP= 7.80D-08
 IDIUse=1 WtCom= 1.00D+00 WtEn= 0.00D+00
 Coeff-Com: -0.297D-03 0.659D-03 0.730D-03 0.823D-03-0.119D-01-0.243D-01
 Coeff-Com:  0.181D+00 0.854D+00
 Coeff:     -0.297D-03 0.659D-03 0.730D-03 0.823D-03-0.119D-01-0.243D-01
 Coeff:      0.181D+00 0.854D+00
 Gap=     0.433 Goal=   None    Shift=    0.000
 RMSDP=3.34D-06 MaxDP=1.44D-04 DE=-1.20D-07 OVMax= 3.47D-05

 Cycle   9  Pass 1  IDiag  1:
 E= -652.620400413864     Delta-E=       -0.000000009405 Rises=F Damp=F
 DIIS: error= 1.65D-06 at cycle   9 NSaved=   9.
 NSaved= 9 IEnMin= 9 EnMin= -652.620400413864     IErMin= 9 ErrMin= 1.65D-06
 ErrMax= 1.65D-06  0.00D+00 EMaxC= 1.00D-01 BMatC= 1.20D-09 BMatP= 6.97D-09
 IDIUse=1 WtCom= 1.00D+00 WtEn= 0.00D+00
 Coeff-Com: -0.215D-03 0.464D-03 0.971D-03 0.181D-02-0.476D-02-0.238D-01
 Coeff-Com: -0.101D-01 0.319D+00 0.717D+00
 Coeff:     -0.215D-03 0.464D-03 0.971D-03 0.181D-02-0.476D-02-0.238D-01
 Coeff:     -0.101D-01 0.319D+00 0.717D+00
 Gap=     0.433 Goal=   None    Shift=    0.000
 RMSDP=1.59D-06 MaxDP=5.99D-05 DE=-9.41D-09 OVMax= 1.40D-05

 Cycle  10  Pass 1  IDiag  1:
 E= -652.620400415419     Delta-E=       -0.000000001555 Rises=F Damp=F
 DIIS: error= 4.93D-07 at cycle  10 NSaved=  10.
 NSaved=10 IEnMin=10 EnMin= -652.620400415419     IErMin=10 ErrMin= 4.93D-07
 ErrMax= 4.93D-07  0.00D+00 EMaxC= 1.00D-01 BMatC= 5.99D-11 BMatP= 1.20D-09
 IDIUse=1 WtCom= 1.00D+00 WtEn= 0.00D+00
 Coeff-Com: -0.939D-05 0.196D-04 0.107D-03 0.242D-03-0.121D-04-0.268D-02
 Coeff-Com: -0.194D-01-0.196D-01 0.150D+00 0.892D+00
 Coeff:     -0.939D-05 0.196D-04 0.107D-03 0.242D-03-0.121D-04-0.268D-02
 Coeff:     -0.194D-01-0.196D-01 0.150D+00 0.892D+00
 Gap=     0.433 Goal=   None    Shift=    0.000
 RMSDP=3.85D-07 MaxDP=1.41D-05 DE=-1.56D-09 OVMax= 4.97D-06

 Cycle  11  Pass 1  IDiag  1:
 E= -652.620400415530     Delta-E=       -0.000000000111 Rises=F Damp=F
 DIIS: error= 9.92D-08 at cycle  11 NSaved=  11.
 NSaved=11 IEnMin=11 EnMin= -652.620400415530     IErMin=11 ErrMin= 9.92D-08
 ErrMax= 9.92D-08  0.00D+00 EMaxC= 1.00D-01 BMatC= 4.67D-12 BMatP= 5.99D-11
 IDIUse=1 WtCom= 1.00D+00 WtEn= 0.00D+00
 Coeff-Com:  0.753D-05-0.167D-04-0.183D-04-0.191D-04 0.252D-03 0.439D-03
 Coeff-Com: -0.486D-02-0.233D-01-0.603D-03 0.239D+00 0.789D+00
 Coeff:      0.753D-05-0.167D-04-0.183D-04-0.191D-04 0.252D-03 0.439D-03
 Coeff:     -0.486D-02-0.233D-01-0.603D-03 0.239D+00 0.789D+00
 Gap=     0.433 Goal=   None    Shift=    0.000
 RMSDP=1.15D-07 MaxDP=4.88D-06 DE=-1.11D-10 OVMax= 1.07D-06

 Cycle  12  Pass 1  IDiag  1:
 E= -652.620400415542     Delta-E=       -0.000000000011 Rises=F Damp=F
 DIIS: error= 3.57D-08 at cycle  12 NSaved=  12.
 NSaved=12 IEnMin=12 EnMin= -652.620400415542     IErMin=12 ErrMin= 3.57D-08
 ErrMax= 3.57D-08  0.00D+00 EMaxC= 1.00D-01 BMatC= 4.68D-13 BMatP= 4.67D-12
 IDIUse=1 WtCom= 1.00D+00 WtEn= 0.00D+00
 Coeff-Com:  0.311D-05-0.671D-05-0.179D-04-0.338D-04 0.910D-04 0.435D-03
 Coeff-Com:  0.626D-03-0.477D-02-0.164D-01-0.274D-01 0.213D+00 0.835D+00
 Coeff:      0.311D-05-0.671D-05-0.179D-04-0.338D-04 0.910D-04 0.435D-03
 Coeff:      0.626D-03-0.477D-02-0.164D-01-0.274D-01 0.213D+00 0.835D+00
 Gap=     0.433 Goal=   None    Shift=    0.000
 RMSDP=3.87D-08 MaxDP=9.12D-07 DE=-1.14D-11 OVMax= 3.20D-07

 Cycle  13  Pass 1  IDiag  1:
 E= -652.620400415540     Delta-E=        0.000000000002 Rises=F Damp=F
 DIIS: error= 6.25D-09 at cycle  13 NSaved=  13.
 NSaved=13 IEnMin=12 EnMin= -652.620400415542     IErMin=13 ErrMin= 6.25D-09
 ErrMax= 6.25D-09  0.00D+00 EMaxC= 1.00D-01 BMatC= 1.26D-14 BMatP= 4.68D-13
 IDIUse=1 WtCom= 1.00D+00 WtEn= 0.00D+00
 Coeff-Com: -0.569D-06 0.125D-05 0.154D-05 0.151D-05-0.105D-04-0.260D-04
 Coeff-Com:  0.279D-03 0.149D-02 0.351D-03-0.134D-01-0.457D-01-0.445D-02
 Coeff-Com:  0.106D+01
 Coeff:     -0.569D-06 0.125D-05 0.154D-05 0.151D-05-0.105D-04-0.260D-04
 Coeff:      0.279D-03 0.149D-02 0.351D-03-0.134D-01-0.457D-01-0.445D-02
 Coeff:      0.106D+01
 Gap=     0.433 Goal=   None    Shift=    0.000
 RMSDP=9.35D-09 MaxDP=2.31D-07 DE= 2.05D-12 OVMax= 9.98D-08

 SCF Done:  E(RwB97XD) =  -652.620400416     A.U. after   13 cycles
            NFock= 13  Conv=0.94D-08     -V/T= 2.0048
 KE= 6.494964372606D+02 PE=-1.972697217696D+03 EE= 4.552804324913D+02
 Leave Link  502 at Tue May 12 14:11:52 2026, MaxMem=  4026531840 cpu:              22.0 elap:               2.0
 (Enter /opt/apps/eb/software/Gaussian/16.C.02-AVX2/g16/l601.exe)
 Copying SCF densities to generalized density rwf, IOpCl= 0 IROHF=0.

 **********************************************************************

            Population analysis using the SCF Density.

 **********************************************************************

 Orbital symmetries:
       Occupied  (A) (A) (A) (A) (A) (A) (A) (A) (A) (A) (A) (A)
                 (A) (A) (A) (A) (A) (A) (A) (A) (A) (A) (A) (A)
       Virtual   (A) (A) (A) (A) (A) (A) (A) (A) (A) (A) (A) (A)
                 (A) (A) (A) (A) (A) (A) (A) (A) (A) (A) (A) (A)
                 (A) (A) (A) (A) (A) (A) (A) (A) (A) (A) (A) (A)
                 (A) (A) (A) (A) (A) (A) (A) (A) (A) (A) (A) (A)
                 (A) (A) (A) (A) (A) (A) (A) (A) (A) (A) (A) (A)
                 (A) (A) (A) (A) (A) (A) (A) (A) (A) (A) (A) (A)
                 (A) (A) (A) (A) (A) (A) (A) (A) (A) (A) (A) (A)
                 (A) (A) (A) (A) (A) (A) (A) (A) (A) (A) (A) (A)
                 (A) (A) (A) (A)
 The electronic state is 1-A.
 Alpha  occ. eigenvalues -- -101.71223 -19.30919 -10.38759 -10.38254 -10.35841
 Alpha  occ. eigenvalues --   -9.58309  -7.33190  -7.32203  -7.32184  -1.17837
 Alpha  occ. eigenvalues --   -0.96872  -0.84663  -0.78066  -0.70383  -0.61951
 Alpha  occ. eigenvalues --   -0.59056  -0.54627  -0.51335  -0.50028  -0.46895
 Alpha  occ. eigenvalues --   -0.41435  -0.38960  -0.38439  -0.37422
 Alpha virt. eigenvalues --    0.05876   0.07421   0.08061   0.08643   0.08805
 Alpha virt. eigenvalues --    0.10830   0.12318   0.12712   0.13874   0.14861
 Alpha virt. eigenvalues --    0.16212   0.16968   0.17768   0.19222   0.20023
 Alpha virt. eigenvalues --    0.21467   0.22052   0.22548   0.25475   0.26522
 Alpha virt. eigenvalues --    0.27817   0.29682   0.33265   0.34098   0.34878
 Alpha virt. eigenvalues --    0.37045   0.37828   0.39618   0.42418   0.45260
 Alpha virt. eigenvalues --    0.63362   0.65080   0.67944   0.68538   0.69797
 Alpha virt. eigenvalues --    0.71809   0.72635   0.75209   0.78097   0.79512
 Alpha virt. eigenvalues --    0.82571   0.86839   0.90642   0.96126   0.98650
 Alpha virt. eigenvalues --    1.00512   1.02159   1.04267   1.06637   1.09321
 Alpha virt. eigenvalues --    1.11955   1.14291   1.22067   1.24930   1.30357
 Alpha virt. eigenvalues --    1.32417   1.37687   1.44917   1.48529   1.50178
 Alpha virt. eigenvalues --    1.57992   1.62346   1.70368   1.75635   1.80372
 Alpha virt. eigenvalues --    1.89578   1.95067   1.99594   2.03455   2.07140
 Alpha virt. eigenvalues --    2.15104   2.18755   2.20923   2.22462   2.27918
 Alpha virt. eigenvalues --    2.29997   2.35282   2.43279   2.49052   2.52226
 Alpha virt. eigenvalues --    2.58796   2.63177   2.69090   2.73921   2.80249
 Alpha virt. eigenvalues --    2.84299   2.91430   2.99966   3.06974   3.14992
 Alpha virt. eigenvalues --    3.23343   3.40009   3.44514   3.54178   3.70754
 Alpha virt. eigenvalues --    4.28766   4.34805   4.49737   4.57723   4.69215
          Condensed to atoms (all electrons):
               1          2          3          4          5          6
     1  C    5.689096   0.396621   0.383519  -0.639416   0.063461   0.159305
     2  H    0.396621   0.548891  -0.041350  -0.087478   0.001007   0.058632
     3  H    0.383519  -0.041350   0.523579   0.016931  -0.000876  -0.008650
     4  C   -0.639416  -0.087478   0.016931   6.628434   0.263530  -0.320555
     5  H    0.063461   0.001007  -0.000876   0.263530   0.543628  -0.015008
     6  C    0.159305   0.058632  -0.008650  -0.320555  -0.015008   5.753871
     7  H    0.063283   0.000710   0.000139  -0.157321   0.003925   0.422586
     8  H   -0.032167  -0.000062   0.000155   0.020719  -0.001000   0.335569
     9  Cl   0.004217   0.000016   0.000143  -0.034921  -0.001640   0.198700
    10  O    0.059213  -0.030958  -0.038406   0.222247  -0.027530  -0.088809
               7          8          9         10
     1  C    0.063283  -0.032167   0.004217   0.059213
     2  H    0.000710  -0.000062   0.000016  -0.030958
     3  H    0.000139   0.000155   0.000143  -0.038406
     4  C   -0.157321   0.020719  -0.034921   0.222247
     5  H    0.003925  -0.001000  -0.001640  -0.027530
     6  C    0.422586   0.335569   0.198700  -0.088809
     7  H    0.520647  -0.025127  -0.036028   0.003657
     8  H   -0.025127   0.530928  -0.044849   0.005763
     9  Cl  -0.036028  -0.044849  16.919791  -0.006072
    10  O    0.003657   0.005763  -0.006072   8.249485
 Mulliken charges:
               1
     1  C   -0.147131
     2  H    0.153970
     3  H    0.164817
     4  C    0.087830
     5  H    0.170503
     6  C   -0.495641
     7  H    0.203527
     8  H    0.210072
     9  Cl   0.000644
    10  O   -0.348590
 Sum of Mulliken charges =   0.00000
 Mulliken charges with hydrogens summed into heavy atoms:
               1
     1  C    0.171656
     4  C    0.258333
     6  C   -0.082043
     9  Cl   0.000644
    10  O   -0.348590
 Electronic spatial extent (au):  <R**2>=            611.6540
 Charge=             -0.0000 electrons
 Dipole moment (field-independent basis, Debye):
    X=              1.7038    Y=              3.2345    Z=              0.6626  Tot=              3.7153
 Quadrupole moment (field-independent basis, Debye-Ang):
   XX=            -37.6319   YY=            -37.8131   ZZ=            -35.8300
   XY=              3.0869   XZ=              0.9327   YZ=             -1.4437
 Traceless Quadrupole moment (field-independent basis, Debye-Ang):
   XX=             -0.5402   YY=             -0.7214   ZZ=              1.2617
   XY=              3.0869   XZ=              0.9327   YZ=             -1.4437
 Octapole moment (field-independent basis, Debye-Ang**2):
  XXX=             14.8379  YYY=              1.9473  ZZZ=             -0.2731  XYY=             -4.6636
  XXY=              3.7817  XXZ=              2.1625  XZZ=              1.7808  YZZ=              0.5905
  YYZ=              0.0049  XYZ=             -1.8047
 Hexadecapole moment (field-independent basis, Debye-Ang**3):
 XXXX=           -565.7733 YYYY=           -115.1926 ZZZZ=            -66.6084 XXXY=             17.9735
 XXXZ=              1.7565 YYYX=              0.0196 YYYZ=              1.2300 ZZZX=              0.3933
 ZZZY=             -2.6149 XXYY=           -121.7142 XXZZ=           -111.6140 YYZZ=            -30.9599
 XXYZ=             -3.1453 YYXZ=             -2.1202 ZZXY=             -0.1205
 N-N= 2.152999475290D+02 E-N=-1.972697218236D+03  KE= 6.494964372606D+02
 No NMR shielding tensors so no spin-rotation constants.
 Leave Link  601 at Tue May 12 14:11:52 2026, MaxMem=  4026531840 cpu:               1.0 elap:               0.1
 (Enter /opt/apps/eb/software/Gaussian/16.C.02-AVX2/g16/l701.exe)
 ... and contract with generalized density number  0.
 Compute integral first derivatives.
 R6Disp: Adding Grimme-D2 dispersion energy 1st derivatives to the gradient.
 Leave Link  701 at Tue May 12 14:11:53 2026, MaxMem=  4026531840 cpu:               2.2 elap:               0.3
 (Enter /opt/apps/eb/software/Gaussian/16.C.02-AVX2/g16/l702.exe)
 L702 exits ... SP integral derivatives will be done elsewhere.
 Leave Link  702 at Tue May 12 14:11:53 2026, MaxMem=  4026531840 cpu:               0.1 elap:               0.0
 (Enter /opt/apps/eb/software/Gaussian/16.C.02-AVX2/g16/l703.exe)
 Integral derivatives from FoFJK, PRISM(SPDF).
 Compute integral first derivatives, UseDBF=F ICtDFT=           0.
 Calling FoFJK, ICntrl=      2127 FMM=F ISym2X=0 I1Cent= 0 IOpClX= 0 NMat=1 NMatS=1 NMatT=0.
 FoFJK:  IHMeth= 1 ICntrl=    2127 DoSepK=T KAlg= 0 I1Cent=           0 FoldK=F
 IRaf=         1 NMat=       1 IRICut=       1 DoRegI=T DoRafI=F ISym2E= 0 IDoP0=0 IntGTp=1.
 FoFCou: FMM=F IPFlag=           0 FMFlag=      100000 FMFlg1=         800
         NFxFlg=           0 DoJE=F BraDBF=F KetDBF=F FulRan=T
         wScrn=  0.000000 ICntrl=      2527 IOpCl=  0 I1Cent=           0 NGrid=           0
         NMat0=    1 NMatS0=      1 NMatT0=    0 NMatD0=    1 NMtDS0=    0 NMtDT0=    0
 Symmetry not used in FoFCou.
 Leave Link  703 at Tue May 12 14:11:54 2026, MaxMem=  4026531840 cpu:               8.8 elap:               1.0
 (Enter /opt/apps/eb/software/Gaussian/16.C.02-AVX2/g16/l716.exe)
 Dipole        = 6.70314448D-01 1.27254520D+00 2.60677143D-01
 ***** Axes restored to original set *****
 -------------------------------------------------------------------
 Center     Atomic                   Forces (Hartrees/Bohr)
 Number     Number              X              Y              Z
 -------------------------------------------------------------------
      1        6          -0.024078125   -0.037229953    0.002474010
      2        1           0.001307752    0.022946579   -0.038548589
      3        1           0.023727998   -0.001717282    0.030313126
      4        6           0.052946221   -0.019255072    0.041630291
      5        1          -0.001998478   -0.004250806   -0.022883318
      6        6          -0.034373724    0.044853246   -0.024301692
      7        1          -0.010291889   -0.008203538    0.026575848
      8        1           0.014426036   -0.034547886   -0.017606398
      9       17          -0.002814379    0.001040346   -0.007199119
     10        8          -0.018851412    0.036364366    0.009545841
 -------------------------------------------------------------------
 Cartesian Forces:  Max     0.052946221 RMS     0.025251193
 Leave Link  716 at Tue May 12 14:11:54 2026, MaxMem=  4026531840 cpu:               0.1 elap:               0.0
 (Enter /opt/apps/eb/software/Gaussian/16.C.02-AVX2/g16/l103.exe)

 GradGradGradGradGradGradGradGradGradGradGradGradGradGradGradGradGradGrad
 Berny optimization.
 FormGI is forming the generalized inverse of G from B-inverse, IUseBI=4.
 Internal  Forces:  Max     0.043980689 RMS     0.016068872
 Search for a local minimum.
 Step number   1 out of a maximum of   49
 All quantities printed in internal units (Hartrees-Bohrs-Radians)
 RMS Force = .16069D-01 SwitMx=.10000D-02 MixMth= 1
 Mixed Optimization -- RFO/linear search
 Second derivative matrix not updated -- first step.
 ITU=  0
     Eigenvalues ---    0.01563   0.02921   0.03621   0.04424   0.06334
     Eigenvalues ---    0.06543   0.12948   0.15233   0.16000   0.16000
     Eigenvalues ---    0.16000   0.16000   0.18958   0.22240   0.25589
     Eigenvalues ---    0.27195   0.29399   0.30264   0.30998   0.34990
     Eigenvalues ---    0.36536   0.39616   0.41219   0.42088
 RFO step:  Lambda=-3.05198400D-02 EMin= 1.56253663D-02
 Linear search not attempted -- first point.
 Iteration  1 RMS(Cart)=  0.05659966 RMS(Int)=  0.00206175
 Iteration  2 RMS(Cart)=  0.00171070 RMS(Int)=  0.00092120
 Iteration  3 RMS(Cart)=  0.00000199 RMS(Int)=  0.00092120
 Iteration  4 RMS(Cart)=  0.00000000 RMS(Int)=  0.00092120
 ITry= 1 IFail=0 DXMaxC= 1.15D-01 DCOld= 1.00D+10 DXMaxT= 3.00D-01 DXLimC= 3.00D+00 Rises=F
 Variable       Old X    -DE/DX   Delta X   Delta X   Delta X     New X
                                 (Linear)    (Quad)   (Total)
    R1        1.95511   0.04398   0.00000   0.09743   0.09743   2.05254
    R2        1.96629   0.03732   0.00000   0.08430   0.08430   2.05060
    R3        2.76589   0.00436   0.00000   0.01358   0.01277   2.77866
    R4        2.75477  -0.01112   0.00000  -0.03091  -0.02910   2.72567
    R5        2.12717  -0.02168   0.00000  -0.06367  -0.06367   2.06350
    R6        2.72079   0.03603   0.00000   0.08445   0.08445   2.80524
    R7        2.78080  -0.03345   0.00000  -0.08584  -0.08683   2.69396
    R8        2.15878  -0.02897   0.00000  -0.08927  -0.08927   2.06951
    R9        2.20633  -0.04078   0.00000  -0.13484  -0.13484   2.07149
   R10        3.41433   0.00086   0.00000   0.00300   0.00300   3.41732
    A1        1.94259   0.01161   0.00000   0.05703   0.05656   1.99915
    A2        2.12419  -0.00172   0.00000  -0.01152  -0.01186   2.11233
    A3        2.04052  -0.00509   0.00000  -0.03010  -0.03032   2.01021
    A4        2.14641  -0.01081   0.00000  -0.05644  -0.05651   2.08990
    A5        1.96763   0.01081   0.00000   0.04609   0.04517   2.01280
    A6        1.98438   0.00077   0.00000   0.02983   0.02819   2.01257
    A7        2.09317   0.00212   0.00000   0.02059   0.02039   2.11357
    A8        2.00674   0.00165   0.00000   0.01296   0.00972   2.01646
    A9        2.00156   0.00640   0.00000   0.00495   0.00365   2.00522
   A10        2.14080  -0.01199   0.00000  -0.06760  -0.06776   2.07304
   A11        1.94539   0.00302   0.00000   0.01149   0.01135   1.95674
   A12        1.96845  -0.01044   0.00000  -0.04770  -0.04745   1.92100
   A13        1.90105   0.01410   0.00000   0.05771   0.05797   1.95902
   A14        1.89129   0.00202   0.00000   0.00416   0.00400   1.89529
   A15        1.94618  -0.01118   0.00000  -0.05995  -0.06006   1.88612
   A16        1.80754   0.00184   0.00000   0.03284   0.03348   1.84102
    D1       -2.60238  -0.00408   0.00000  -0.05646  -0.05701  -2.65939
    D2       -0.12922   0.00315   0.00000   0.04133   0.04188  -0.08734
    D3        0.11155  -0.00406   0.00000  -0.07503  -0.07586   0.03569
    D4        2.58472   0.00316   0.00000   0.02276   0.02303   2.60774
    D5        0.60696  -0.00290   0.00000  -0.03306  -0.03409   0.57287
    D6       -1.52514  -0.00017   0.00000  -0.01229  -0.01354  -1.53868
    D7        2.76160  -0.00520   0.00000  -0.06102  -0.06187   2.69972
    D8        3.07207   0.00411   0.00000   0.07202   0.07166  -3.13945
    D9        0.93997   0.00683   0.00000   0.09279   0.09221   1.03218
   D10       -1.05648   0.00180   0.00000   0.04405   0.04388  -1.01260
   D11       -0.63237  -0.00106   0.00000  -0.01948  -0.01805  -0.65042
   D12       -2.76447   0.00166   0.00000   0.00129   0.00249  -2.76198
   D13        1.52227  -0.00337   0.00000  -0.04745  -0.04583   1.47643
         Item               Value     Threshold  Converged?
 Maximum Force            0.043981     0.000450     NO 
 RMS     Force            0.016069     0.000300     NO 
 Maximum Displacement     0.114747     0.001800     NO 
 RMS     Displacement     0.056566     0.001200     NO 
 Predicted change in Energy=-1.713587D-02
 Lowest energy point so far.  Saving SCF results.
 GradGradGradGradGradGradGradGradGradGradGradGradGradGradGradGradGradGrad

 Leave Link  103 at Tue May 12 14:11:54 2026, MaxMem=  4026531840 cpu:               0.3 elap:               0.1
 (Enter /opt/apps/eb/software/Gaussian/16.C.02-AVX2/g16/l202.exe)
                          Input orientation:                          
 ---------------------------------------------------------------------
 Center     Atomic      Atomic             Coordinates (Angstroms)
 Number     Number       Type             X           Y           Z
 ---------------------------------------------------------------------
      1          6           0        2.140684    0.293989   -0.006537
      2          1           0        2.335949    0.922286   -0.870746
      3          1           0        2.970011    0.213173    0.688582
      4          6           0        0.767936    0.059249    0.465210
      5          1           0        0.671018   -0.155674    1.531414
      6          6           0       -0.385755    0.758688   -0.154010
      7          1           0       -0.230575    0.943950   -1.222151
      8          1           0       -0.555854    1.719151    0.346189
      9         17           0       -1.928793   -0.164831    0.036637
     10          8           0        1.449709   -0.940230   -0.288789
 ---------------------------------------------------------------------
                    Distance matrix (angstroms):
                    1          2          3          4          5
     1  C    0.000000
     2  H    1.086160   0.000000
     3  H    1.085129   1.826576   0.000000
     4  C    1.470403   2.233445   2.218721   0.000000
     5  H    2.174260   3.115182   2.476243   1.091959   0.000000
     6  C    2.573050   2.819245   3.502672   1.484469   2.189402
     7  H    2.742815   2.590559   3.798510   2.151024   3.099058
     8  H    3.070312   3.237043   3.849276   2.126467   2.534747
     9  Cl   4.095488   4.493683   4.956430   2.739750   2.998910
    10  O    1.442362   2.143143   2.144040   1.425583   2.129560
                    6          7          8          9         10
     6  C    0.000000
     7  H    1.095138   0.000000
     8  H    1.096185   1.779447   0.000000
     9  Cl   1.808370   2.387025   2.351632   0.000000
    10  O    2.504678   2.691589   3.390839   3.481583   0.000000
 Stoichiometry    C3H5ClO
 Framework group  C1[X(C3H5ClO)]
 Deg. of freedom    24
 Full point group                 C1      NOp   1
 RotChk:  IX=0 Diff= 2.75D-02
 Largest Abelian subgroup         C1      NOp   1
 Largest concise Abelian subgroup C1      NOp   1
                         Standard orientation:                         
 ---------------------------------------------------------------------
 Center     Atomic      Atomic             Coordinates (Angstroms)
 Number     Number       Type             X           Y           Z
 ---------------------------------------------------------------------
      1          6           0        2.154011    0.327210   -0.003377
      2          1           0        2.346810    0.953215   -0.869801
      3          1           0        2.978668    0.263341    0.699023
      4          6           0        0.781143    0.074245    0.458498
      5          1           0        0.678664   -0.135712    1.525170
      6          6           0       -0.377936    0.752126   -0.174483
      7          1           0       -0.216732    0.933310   -1.242431
      8          1           0       -0.566884    1.712858    0.318380
      9         17           0       -1.908177   -0.193835    0.009145
     10          8           0        1.484397   -0.919162   -0.283704
 ---------------------------------------------------------------------
 Rotational constants (GHZ):          13.6382303           2.0101834           1.8729366
 Leave Link  202 at Tue May 12 14:11:54 2026, MaxMem=  4026531840 cpu:               0.1 elap:               0.0
 (Enter /opt/apps/eb/software/Gaussian/16.C.02-AVX2/g16/l301.exe)
 Standard basis: 6-31+G(d,p) (6D, 7F)
 Ernie: Thresh=  0.10000D-02 Tol=  0.10000D-05 Strict=F.
 There are   124 symmetry adapted cartesian basis functions of A   symmetry.
 There are   124 symmetry adapted basis functions of A   symmetry.
   124 basis functions,   219 primitive gaussians,   124 cartesian basis functions
    24 alpha electrons       24 beta electrons
       nuclear repulsion energy       214.8354421220 Hartrees.
 IExCor= 4639 DFT=T Ex+Corr=wB97XD ExCW=0 ScaHFX=  1.000000
 ScaDFX=  1.000000  1.000000  1.000000  1.000000 ScalE2=  1.000000  1.000000
 IRadAn=      5 IRanWt=     -1 IRanGd=            0 ICorTp=0 IEmpDi=121
 HFx  wShort=  0.000000 wLong=  0.200000 cFull=  0.222036 cShort=  0.000000 cLong=  0.777964
 DFx  wShort=  0.000000 wLong=  0.200000 cFull=  0.000000 cShort=  0.000000 cLong=  1.000000
 NAtoms=   10 NActive=   10 NUniq=   10 SFac= 1.00D+00 NAtFMM=   60 NAOKFM=F Big=F
 Integral buffers will be    131072 words long.
 Raffenetti 2 integral format.
 Two-electron integral symmetry is turned on.
 R6Disp:  Grimme-D2 Dispersion energy=       -0.0033187906 Hartrees.
 Nuclear repulsion after empirical dispersion term =      214.8321233314 Hartrees.
 Leave Link  301 at Tue May 12 14:11:54 2026, MaxMem=  4026531840 cpu:               0.1 elap:               0.0
 (Enter /opt/apps/eb/software/Gaussian/16.C.02-AVX2/g16/l302.exe)
 NPDir=0 NMtPBC=     1 NCelOv=     1 NCel=       1 NClECP=     1 NCelD=      1
         NCelK=      1 NCelE2=     1 NClLst=     1 CellRange=     0.0.
 One-electron integrals computed using PRISM.
 One-electron integral symmetry used in STVInt
 NBasis=   124 RedAO= T EigKep=  7.11D-05  NBF=   124
 NBsUse=   124 1.00D-06 EigRej= -1.00D+00 NBFU=   124
 Precomputing XC quadrature grid using
 IXCGrd= 4 IRadAn=           5 IRanWt=          -1 IRanGd=           0 AccXCQ= 1.00D-12.
 Generated NRdTot=       0 NPtTot=           0 NUsed=           0 NTot=          32
 NSgBfM=   124   124   124   124   124 MxSgAt=    10 MxSgA2=    10.
 Leave Link  302 at Tue May 12 14:11:54 2026, MaxMem=  4026531840 cpu:               1.0 elap:               0.2
 (Enter /opt/apps/eb/software/Gaussian/16.C.02-AVX2/g16/l303.exe)
 DipDrv:  MaxL=1.
 Leave Link  303 at Tue May 12 14:11:54 2026, MaxMem=  4026531840 cpu:               0.3 elap:               0.1
 (Enter /opt/apps/eb/software/Gaussian/16.C.02-AVX2/g16/l401.exe)
 Initial guess from the checkpoint file:  "/users/fsw516/Gaussian_Submission/Gau-3497943.chk"
 B after Tr=     0.000000    0.000000   -0.000000
         Rot=    0.999985   -0.001119   -0.003581    0.004048 Ang=  -0.63 deg.
 Guess basis will be translated and rotated to current coordinates.
 JPrj=2 DoOrth=T DoCkMO=T.
 Generating alternative initial guess.
 ExpMin= 4.38D-02 ExpMax= 2.52D+04 ExpMxC= 3.78D+03 IAcc=3 IRadAn=         5 AccDes= 0.00D+00
 Harris functional with IExCor= 4639 and IRadAn=       5 diagonalized for initial guess.
 HarFok:  IExCor= 4639 AccDes= 0.00D+00 IRadAn=         5 IDoV= 1 UseB2=F ITyADJ=14
 ICtDFT=  3500011 ScaDFX=  1.000000  1.000000  1.000000  1.000000
 FoFCou: FMM=F IPFlag=           0 FMFlag=      100000 FMFlg1=           0
         NFxFlg=           0 DoJE=T BraDBF=F KetDBF=T FulRan=T
         wScrn=  0.000000 ICntrl=       500 IOpCl=  0 I1Cent=   200000004 NGrid=           0
         NMat0=    1 NMatS0=      1 NMatT0=    0 NMatD0=    1 NMtDS0=    0 NMtDT0=    0
 Petite list used in FoFCou.
 Harris En= -636.863234751399    
 Leave Link  401 at Tue May 12 14:11:55 2026, MaxMem=  4026531840 cpu:               3.3 elap:               0.4
 (Enter /opt/apps/eb/software/Gaussian/16.C.02-AVX2/g16/l502.exe)
 Keep R1 ints in memory in canonical form, NReq=76270117.
 FoFCou: FMM=F IPFlag=           0 FMFlag=           0 FMFlg1=           0
         NFxFlg=           0 DoJE=F BraDBF=F KetDBF=F FulRan=T
         wScrn=  0.000000 ICntrl=       600 IOpCl=  0 I1Cent=           0 NGrid=           0
         NMat0=    1 NMatS0=   7750 NMatT0=    0 NMatD0=    1 NMtDS0=    0 NMtDT0=    0
 Symmetry not used in FoFCou.
 Two-electron integral symmetry not used.
 Closed shell SCF:
 Using DIIS extrapolation, IDIIS=  1040.
 NGot=  4026531840 LenX=  3966427239 LenY=  3966411422
 Requested convergence on RMS density matrix=1.00D-08 within 128 cycles.
 Requested convergence on MAX density matrix=1.00D-06.
 Requested convergence on             energy=1.00D-06.
 No special actions if energy rises.

 Cycle   1  Pass 1  IDiag  1:
 E= -652.630696508213    
 DIIS: error= 2.73D-03 at cycle   1 NSaved=   1.
 NSaved= 1 IEnMin= 1 EnMin= -652.630696508213     IErMin= 1 ErrMin= 2.73D-03
 ErrMax= 2.73D-03  0.00D+00 EMaxC= 1.00D-01 BMatC= 4.34D-03 BMatP= 4.34D-03
 IDIUse=3 WtCom= 9.73D-01 WtEn= 2.73D-02
 Coeff-Com:  0.100D+01
 Coeff-En:   0.100D+01
 Coeff:      0.100D+01
 Gap=     0.858 Goal=   None    Shift=    0.000
 GapD=    0.858 DampG=2.000 DampE=1.000 DampFc=2.0000 IDamp=-1.
 RMSDP=2.53D-03 MaxDP=1.28D-01              OVMax= 1.82D-02

 Cycle   2  Pass 1  IDiag  1:
 E= -652.637005679216     Delta-E=       -0.006309171003 Rises=F Damp=F
 DIIS: error= 9.43D-04 at cycle   2 NSaved=   2.
 NSaved= 2 IEnMin= 2 EnMin= -652.637005679216     IErMin= 2 ErrMin= 9.43D-04
 ErrMax= 9.43D-04  0.00D+00 EMaxC= 1.00D-01 BMatC= 3.49D-04 BMatP= 4.34D-03
 IDIUse=3 WtCom= 9.91D-01 WtEn= 9.43D-03
 Coeff-Com:  0.137D-01 0.986D+00
 Coeff-En:   0.000D+00 0.100D+01
 Coeff:      0.136D-01 0.986D+00
 Gap=     0.429 Goal=   None    Shift=    0.000
 RMSDP=5.62D-04 MaxDP=2.56D-02 DE=-6.31D-03 OVMax= 7.60D-03

 Cycle   3  Pass 1  IDiag  1:
 E= -652.637309783161     Delta-E=       -0.000304103946 Rises=F Damp=F
 DIIS: error= 8.36D-04 at cycle   3 NSaved=   3.
 NSaved= 3 IEnMin= 3 EnMin= -652.637309783161     IErMin= 3 ErrMin= 8.36D-04
 ErrMax= 8.36D-04  0.00D+00 EMaxC= 1.00D-01 BMatC= 2.51D-04 BMatP= 3.49D-04
 IDIUse=3 WtCom= 9.92D-01 WtEn= 8.36D-03
 Coeff-Com: -0.681D-01 0.478D+00 0.590D+00
 Coeff-En:   0.000D+00 0.242D-01 0.976D+00
 Coeff:     -0.675D-01 0.475D+00 0.593D+00
 Gap=     0.433 Goal=   None    Shift=    0.000
 RMSDP=2.12D-04 MaxDP=5.82D-03 DE=-3.04D-04 OVMax= 3.03D-03

 Cycle   4  Pass 1  IDiag  1:
 E= -652.637522390911     Delta-E=       -0.000212607750 Rises=F Damp=F
 DIIS: error= 2.00D-04 at cycle   4 NSaved=   4.
 NSaved= 4 IEnMin= 4 EnMin= -652.637522390911     IErMin= 4 ErrMin= 2.00D-04
 ErrMax= 2.00D-04  0.00D+00 EMaxC= 1.00D-01 BMatC= 1.23D-05 BMatP= 2.51D-04
 IDIUse=3 WtCom= 9.98D-01 WtEn= 2.00D-03
 Coeff-Com: -0.233D-01 0.580D-01 0.195D+00 0.770D+00
 Coeff-En:   0.000D+00 0.000D+00 0.000D+00 0.100D+01
 Coeff:     -0.233D-01 0.579D-01 0.195D+00 0.770D+00
 Gap=     0.432 Goal=   None    Shift=    0.000
 RMSDP=5.96D-05 MaxDP=1.38D-03 DE=-2.13D-04 OVMax= 1.08D-03

 Cycle   5  Pass 1  IDiag  1:
 E= -652.637533421393     Delta-E=       -0.000011030481 Rises=F Damp=F
 DIIS: error= 8.74D-05 at cycle   5 NSaved=   5.
 NSaved= 5 IEnMin= 5 EnMin= -652.637533421393     IErMin= 5 ErrMin= 8.74D-05
 ErrMax= 8.74D-05  0.00D+00 EMaxC= 1.00D-01 BMatC= 2.48D-06 BMatP= 1.23D-05
 IDIUse=1 WtCom= 1.00D+00 WtEn= 0.00D+00
 Coeff-Com: -0.376D-02-0.244D-01 0.270D-01 0.355D+00 0.646D+00
 Coeff:     -0.376D-02-0.244D-01 0.270D-01 0.355D+00 0.646D+00
 Gap=     0.432 Goal=   None    Shift=    0.000
 RMSDP=2.91D-05 MaxDP=1.22D-03 DE=-1.10D-05 OVMax= 3.78D-04

 Cycle   6  Pass 1  IDiag  1:
 E= -652.637535930279     Delta-E=       -0.000002508886 Rises=F Damp=F
 DIIS: error= 1.71D-05 at cycle   6 NSaved=   6.
 NSaved= 6 IEnMin= 6 EnMin= -652.637535930279     IErMin= 6 ErrMin= 1.71D-05
 ErrMax= 1.71D-05  0.00D+00 EMaxC= 1.00D-01 BMatC= 1.25D-07 BMatP= 2.48D-06
 IDIUse=1 WtCom= 1.00D+00 WtEn= 0.00D+00
 Coeff-Com:  0.247D-02-0.156D-01-0.209D-01-0.263D-01 0.149D+00 0.912D+00
 Coeff:      0.247D-02-0.156D-01-0.209D-01-0.263D-01 0.149D+00 0.912D+00
 Gap=     0.432 Goal=   None    Shift=    0.000
 RMSDP=1.47D-05 MaxDP=3.71D-04 DE=-2.51D-06 OVMax= 1.98D-04

 Cycle   7  Pass 1  IDiag  1:
 E= -652.637536162951     Delta-E=       -0.000000232672 Rises=F Damp=F
 DIIS: error= 3.34D-06 at cycle   7 NSaved=   7.
 NSaved= 7 IEnMin= 7 EnMin= -652.637536162951     IErMin= 7 ErrMin= 3.34D-06
 ErrMax= 3.34D-06  0.00D+00 EMaxC= 1.00D-01 BMatC= 5.18D-09 BMatP= 1.25D-07
 IDIUse=1 WtCom= 1.00D+00 WtEn= 0.00D+00
 Coeff-Com:  0.497D-03-0.613D-03-0.325D-02-0.211D-01-0.200D-01 0.104D+00
 Coeff-Com:  0.940D+00
 Coeff:      0.497D-03-0.613D-03-0.325D-02-0.211D-01-0.200D-01 0.104D+00
 Coeff:      0.940D+00
 Gap=     0.432 Goal=   None    Shift=    0.000
 RMSDP=3.58D-06 MaxDP=1.28D-04 DE=-2.33D-07 OVMax= 5.69D-05

 Cycle   8  Pass 1  IDiag  1:
 E= -652.637536177307     Delta-E=       -0.000000014356 Rises=F Damp=F
 DIIS: error= 1.35D-06 at cycle   8 NSaved=   8.
 NSaved= 8 IEnMin= 8 EnMin= -652.637536177307     IErMin= 8 ErrMin= 1.35D-06
 ErrMax= 1.35D-06  0.00D+00 EMaxC= 1.00D-01 BMatC= 9.14D-10 BMatP= 5.18D-09
 IDIUse=1 WtCom= 1.00D+00 WtEn= 0.00D+00
 Coeff-Com: -0.134D-03 0.148D-02 0.136D-02-0.249D-02-0.210D-01-0.733D-01
 Coeff-Com:  0.247D+00 0.847D+00
 Coeff:     -0.134D-03 0.148D-02 0.136D-02-0.249D-02-0.210D-01-0.733D-01
 Coeff:      0.247D+00 0.847D+00
 Gap=     0.432 Goal=   None    Shift=    0.000
 RMSDP=1.25D-06 MaxDP=3.52D-05 DE=-1.44D-08 OVMax= 2.18D-05

 Cycle   9  Pass 1  IDiag  1:
 E= -652.637536179160     Delta-E=       -0.000000001853 Rises=F Damp=F
 DIIS: error= 4.97D-07 at cycle   9 NSaved=   9.
 NSaved= 9 IEnMin= 9 EnMin= -652.637536179160     IErMin= 9 ErrMin= 4.97D-07
 ErrMax= 4.97D-07  0.00D+00 EMaxC= 1.00D-01 BMatC= 7.04D-11 BMatP= 9.14D-10
 IDIUse=1 WtCom= 1.00D+00 WtEn= 0.00D+00
 Coeff-Com: -0.833D-04 0.414D-03 0.636D-03 0.187D-02-0.272D-02-0.307D-01
 Coeff-Com: -0.393D-01 0.181D+00 0.889D+00
 Coeff:     -0.833D-04 0.414D-03 0.636D-03 0.187D-02-0.272D-02-0.307D-01
 Coeff:     -0.393D-01 0.181D+00 0.889D+00
 Gap=     0.432 Goal=   None    Shift=    0.000
 RMSDP=4.01D-07 MaxDP=1.08D-05 DE=-1.85D-09 OVMax= 6.48D-06

 Cycle  10  Pass 1  IDiag  1:
 E= -652.637536179310     Delta-E=       -0.000000000150 Rises=F Damp=F
 DIIS: error= 7.45D-08 at cycle  10 NSaved=  10.
 NSaved=10 IEnMin=10 EnMin= -652.637536179310     IErMin=10 ErrMin= 7.45D-08
 ErrMax= 7.45D-08  0.00D+00 EMaxC= 1.00D-01 BMatC= 2.63D-12 BMatP= 7.04D-11
 IDIUse=1 WtCom= 1.00D+00 WtEn= 0.00D+00
 Coeff-Com: -0.203D-06-0.563D-04-0.284D-04 0.389D-03 0.123D-02 0.166D-02
 Coeff-Com: -0.178D-01-0.371D-01 0.822D-01 0.969D+00
 Coeff:     -0.203D-06-0.563D-04-0.284D-04 0.389D-03 0.123D-02 0.166D-02
 Coeff:     -0.178D-01-0.371D-01 0.822D-01 0.969D+00
 Gap=     0.432 Goal=   None    Shift=    0.000
 RMSDP=8.05D-08 MaxDP=2.04D-06 DE=-1.50D-10 OVMax= 1.49D-06

 Cycle  11  Pass 1  IDiag  1:
 E= -652.637536179323     Delta-E=       -0.000000000012 Rises=F Damp=F
 DIIS: error= 2.20D-08 at cycle  11 NSaved=  11.
 NSaved=11 IEnMin=11 EnMin= -652.637536179323     IErMin=11 ErrMin= 2.20D-08
 ErrMax= 2.20D-08  0.00D+00 EMaxC= 1.00D-01 BMatC= 2.71D-13 BMatP= 2.63D-12
 IDIUse=1 WtCom= 1.00D+00 WtEn= 0.00D+00
 Coeff-Com:  0.475D-05-0.335D-04-0.417D-04-0.399D-04 0.354D-03 0.201D-02
 Coeff-Com: -0.695D-03-0.170D-01-0.421D-01 0.186D+00 0.872D+00
 Coeff:      0.475D-05-0.335D-04-0.417D-04-0.399D-04 0.354D-03 0.201D-02
 Coeff:     -0.695D-03-0.170D-01-0.421D-01 0.186D+00 0.872D+00
 Gap=     0.432 Goal=   None    Shift=    0.000
 RMSDP=2.24D-08 MaxDP=5.48D-07 DE=-1.24D-11 OVMax= 3.63D-07

 Cycle  12  Pass 1  IDiag  1:
 E= -652.637536179323     Delta-E=        0.000000000000 Rises=F Damp=F
 DIIS: error= 7.74D-09 at cycle  12 NSaved=  12.
 NSaved=12 IEnMin=11 EnMin= -652.637536179323     IErMin=12 ErrMin= 7.74D-09
 ErrMax= 7.74D-09  0.00D+00 EMaxC= 1.00D-01 BMatC= 3.32D-14 BMatP= 2.71D-13
 IDIUse=1 WtCom= 1.00D+00 WtEn= 0.00D+00
 Coeff-Com:  0.131D-05-0.388D-05-0.847D-05-0.438D-04-0.171D-04 0.375D-03
 Coeff-Com:  0.147D-02-0.121D-02-0.203D-01-0.386D-01 0.237D+00 0.821D+00
 Coeff:      0.131D-05-0.388D-05-0.847D-05-0.438D-04-0.171D-04 0.375D-03
 Coeff:      0.147D-02-0.121D-02-0.203D-01-0.386D-01 0.237D+00 0.821D+00
 Gap=     0.432 Goal=   None    Shift=    0.000
 RMSDP=6.14D-09 MaxDP=1.26D-07 DE= 1.14D-13 OVMax= 1.04D-07

 SCF Done:  E(RwB97XD) =  -652.637536179     A.U. after   12 cycles
            NFock= 12  Conv=0.61D-08     -V/T= 2.0048
 KE= 6.495166099107D+02 PE=-1.971786878518D+03 EE= 4.548006090967D+02
 Leave Link  502 at Tue May 12 14:11:57 2026, MaxMem=  4026531840 cpu:              21.1 elap:               2.0
 (Enter /opt/apps/eb/software/Gaussian/16.C.02-AVX2/g16/l701.exe)
 ... and contract with generalized density number  0.
 Compute integral first derivatives.
 R6Disp: Adding Grimme-D2 dispersion energy 1st derivatives to the gradient.
 Leave Link  701 at Tue May 12 14:11:57 2026, MaxMem=  4026531840 cpu:               2.3 elap:               0.3
 (Enter /opt/apps/eb/software/Gaussian/16.C.02-AVX2/g16/l702.exe)
 L702 exits ... SP integral derivatives will be done elsewhere.
 Leave Link  702 at Tue May 12 14:11:57 2026, MaxMem=  4026531840 cpu:               0.2 elap:               0.0
 (Enter /opt/apps/eb/software/Gaussian/16.C.02-AVX2/g16/l703.exe)
 Integral derivatives from FoFJK, PRISM(SPDF).
 Compute integral first derivatives, UseDBF=F ICtDFT=           0.
 Calling FoFJK, ICntrl=      2127 FMM=F ISym2X=0 I1Cent= 0 IOpClX= 0 NMat=1 NMatS=1 NMatT=0.
 FoFJK:  IHMeth= 1 ICntrl=    2127 DoSepK=T KAlg= 0 I1Cent=           0 FoldK=F
 IRaf=         1 NMat=       1 IRICut=       1 DoRegI=T DoRafI=F ISym2E= 0 IDoP0=0 IntGTp=1.
 FoFCou: FMM=F IPFlag=           0 FMFlag=      100000 FMFlg1=         800
         NFxFlg=           0 DoJE=F BraDBF=F KetDBF=F FulRan=T
         wScrn=  0.000000 ICntrl=      2527 IOpCl=  0 I1Cent=           0 NGrid=           0
         NMat0=    1 NMatS0=      1 NMatT0=    0 NMatD0=    1 NMtDS0=    0 NMtDT0=    0
 Symmetry not used in FoFCou.
 Leave Link  703 at Tue May 12 14:11:58 2026, MaxMem=  4026531840 cpu:               7.9 elap:               0.9
 (Enter /opt/apps/eb/software/Gaussian/16.C.02-AVX2/g16/l716.exe)
 Dipole        = 7.40229063D-01 1.18516632D+00 2.58370985D-01
 ***** Axes restored to original set *****
 -------------------------------------------------------------------
 Center     Atomic                   Forces (Hartrees/Bohr)
 Number     Number              X              Y              Z
 -------------------------------------------------------------------
      1        6          -0.004322854   -0.008460601   -0.005400635
      2        1          -0.002155656    0.000708824   -0.002160321
      3        1           0.000197962   -0.001034794    0.002427836
      4        6           0.013679406   -0.003189318    0.005974576
      5        1          -0.003327813   -0.003234045   -0.002104674
      6        6          -0.008982685    0.008174874   -0.003890827
      7        1          -0.000473856   -0.003339646    0.002266009
      8        1           0.001453290   -0.002370069   -0.000825195
      9       17           0.003282473    0.000328186   -0.001519055
     10        8           0.000649734    0.012416590    0.005232286
 -------------------------------------------------------------------
 Cartesian Forces:  Max     0.013679406 RMS     0.005092321
 Leave Link  716 at Tue May 12 14:11:58 2026, MaxMem=  4026531840 cpu:               0.2 elap:               0.0
 (Enter /opt/apps/eb/software/Gaussian/16.C.02-AVX2/g16/l103.exe)

 GradGradGradGradGradGradGradGradGradGradGradGradGradGradGradGradGradGrad
 Berny optimization.
 Using GEDIIS/GDIIS optimizer.
 FormGI is forming the generalized inverse of G from B-inverse, IUseBI=4.
 Internal  Forces:  Max     0.007596469 RMS     0.002720788
 Search for a local minimum.
 Step number   2 out of a maximum of   49
 All quantities printed in internal units (Hartrees-Bohrs-Radians)
 RMS Force = .27208D-02 SwitMx=.10000D-02 MixMth= 1
 Mixed Optimization -- RFO/linear search
 Update second derivatives using D2CorX and points    1    2
 DE= -1.71D-02 DEPred=-1.71D-02 R= 1.00D+00
 TightC=F SS=  1.41D+00  RLast= 3.50D-01 DXNew= 5.0454D-01 1.0515D+00
 Trust test= 1.00D+00 RLast= 3.50D-01 DXMaxT set to 5.05D-01
 ITU=  1  0
 Use linear search instead of GDIIS.
     Eigenvalues ---    0.01563   0.02937   0.03551   0.04412   0.06115
     Eigenvalues ---    0.06604   0.13578   0.15208   0.15868   0.16000
     Eigenvalues ---    0.16000   0.16166   0.19736   0.22606   0.25446
     Eigenvalues ---    0.27689   0.29319   0.29959   0.31075   0.33754
     Eigenvalues ---    0.36228   0.39080   0.41439   0.42992
 RFO step:  Lambda=-1.37562555D-03 EMin= 1.56287766D-02
 Quartic linear search produced a step of  0.12798.
 Iteration  1 RMS(Cart)=  0.02498524 RMS(Int)=  0.00076469
 Iteration  2 RMS(Cart)=  0.00069061 RMS(Int)=  0.00038335
 Iteration  3 RMS(Cart)=  0.00000031 RMS(Int)=  0.00038335
 ITry= 1 IFail=0 DXMaxC= 5.31D-02 DCOld= 1.00D+10 DXMaxT= 5.05D-01 DXLimC= 3.00D+00 Rises=F
 Variable       Old X    -DE/DX   Delta X   Delta X   Delta X     New X
                                 (Linear)    (Quad)   (Total)
    R1        2.05254   0.00174   0.01247  -0.00621   0.00625   2.05880
    R2        2.05060   0.00178   0.01079  -0.00456   0.00622   2.05682
    R3        2.77866  -0.00163   0.00163  -0.00309  -0.00160   2.77706
    R4        2.72567  -0.00759  -0.00372  -0.02567  -0.02907   2.69660
    R5        2.06350  -0.00112  -0.00815   0.00328  -0.00487   2.05863
    R6        2.80524   0.00664   0.01081   0.00935   0.02015   2.82540
    R7        2.69396  -0.00760  -0.01111  -0.01127  -0.02256   2.67141
    R8        2.06951  -0.00284  -0.01142  -0.00049  -0.01191   2.05760
    R9        2.07149  -0.00268  -0.01726   0.00477  -0.01248   2.05901
   R10        3.41732  -0.00313   0.00038  -0.01406  -0.01368   3.40365
    A1        1.99915   0.00301   0.00724   0.01319   0.02033   2.01947
    A2        2.11233  -0.00242  -0.00152  -0.01440  -0.01606   2.09627
    A3        2.01021   0.00031  -0.00388   0.00212  -0.00163   2.00857
    A4        2.08990  -0.00088  -0.00723  -0.00005  -0.00723   2.08267
    A5        2.01280  -0.00064   0.00578  -0.00864  -0.00321   2.00959
    A6        2.01257   0.00469   0.00361   0.04522   0.04817   2.06074
    A7        2.11357  -0.00302   0.00261  -0.01455  -0.01241   2.10116
    A8        2.01646  -0.00057   0.00124  -0.00253  -0.00277   2.01368
    A9        2.00522   0.00031   0.00047  -0.01714  -0.01700   1.98822
   A10        2.07304  -0.00030  -0.00867  -0.00794  -0.01702   2.05602
   A11        1.95674  -0.00161   0.00145  -0.01820  -0.01697   1.93977
   A12        1.92100  -0.00021  -0.00607   0.01202   0.00601   1.92701
   A13        1.95902  -0.00132   0.00742  -0.01617  -0.00895   1.95007
   A14        1.89529   0.00175   0.00051   0.01853   0.01908   1.91437
   A15        1.88612  -0.00022  -0.00769  -0.00986  -0.01800   1.86812
   A16        1.84102   0.00192   0.00428   0.01658   0.02095   1.86197
    D1       -2.65939  -0.00135  -0.00730  -0.03451  -0.04241  -2.70180
    D2       -0.08734   0.00064   0.00536   0.01754   0.02337  -0.06397
    D3        0.03569  -0.00135  -0.00971  -0.03446  -0.04482  -0.00913
    D4        2.60774   0.00064   0.00295   0.01759   0.02095   2.62869
    D5        0.57287  -0.00096  -0.00436  -0.00816  -0.01261   0.56027
    D6       -1.53868  -0.00196  -0.00173  -0.02784  -0.02954  -1.56822
    D7        2.69972  -0.00341  -0.00792  -0.04624  -0.05398   2.64574
    D8       -3.13945   0.00263   0.00917   0.05853   0.06722  -3.07223
    D9        1.03218   0.00163   0.01180   0.03885   0.05029   1.08246
   D10       -1.01260   0.00018   0.00562   0.02045   0.02585  -0.98675
   D11       -0.65042   0.00189  -0.00231   0.01033   0.00820  -0.64221
   D12       -2.76198   0.00089   0.00032  -0.00935  -0.00873  -2.77071
   D13        1.47643  -0.00055  -0.00587  -0.02775  -0.03317   1.44326
         Item               Value     Threshold  Converged?
 Maximum Force            0.007596     0.000450     NO 
 RMS     Force            0.002721     0.000300     NO 
 Maximum Displacement     0.053103     0.001800     NO 
 RMS     Displacement     0.025096     0.001200     NO 
 Predicted change in Energy=-9.487059D-04
 Lowest energy point so far.  Saving SCF results.
 GradGradGradGradGradGradGradGradGradGradGradGradGradGradGradGradGradGrad

 Leave Link  103 at Tue May 12 14:11:58 2026, MaxMem=  4026531840 cpu:               0.2 elap:               0.0
 (Enter /opt/apps/eb/software/Gaussian/16.C.02-AVX2/g16/l202.exe)
                          Input orientation:                          
 ---------------------------------------------------------------------
 Center     Atomic      Atomic             Coordinates (Angstroms)
 Number     Number       Type             X           Y           Z
 ---------------------------------------------------------------------
      1          6           0        2.140817    0.291992   -0.014328
      2          1           0        2.307848    0.920381   -0.888498
      3          1           0        2.981220    0.204506    0.671771
      4          6           0        0.776711    0.073704    0.486839
      5          1           0        0.651529   -0.179818    1.538890
      6          6           0       -0.382609    0.774665   -0.145662
      7          1           0       -0.213259    0.932316   -1.209632
      8          1           0       -0.560716    1.731876    0.343428
      9         17           0       -1.903678   -0.177080    0.011215
     10          8           0        1.436467   -0.922790   -0.268223
 ---------------------------------------------------------------------
                    Distance matrix (angstroms):
                    1          2          3          4          5
     1  C    0.000000
     2  H    1.089470   0.000000
     3  H    1.088423   1.844003   0.000000
     4  C    1.469559   2.225488   2.216115   0.000000
     5  H    2.202968   3.137840   2.515364   1.089382   0.000000
     6  C    2.572527   2.794923   3.508364   1.495135   2.195039
     7  H    2.716696   2.541505   3.778105   2.143658   3.088539
     8  H    3.082132   3.225651   3.871173   2.135138   2.559930
     9  Cl   4.071685   4.444193   4.944104   2.733788   2.977059
    10  O    1.426978   2.131038   2.130879   1.413647   2.105657
                    6          7          8          9         10
     6  C    0.000000
     7  H    1.088836   0.000000
     8  H    1.089580   1.781016   0.000000
     9  Cl   1.801133   2.361936   2.357547   0.000000
    10  O    2.491067   2.655045   3.377886   3.433764   0.000000
 Stoichiometry    C3H5ClO
 Framework group  C1[X(C3H5ClO)]
 Deg. of freedom    24
 Full point group                 C1      NOp   1
 RotChk:  IX=0 Diff= 1.93D-02
 Largest Abelian subgroup         C1      NOp   1
 Largest concise Abelian subgroup C1      NOp   1
                         Standard orientation:                         
 ---------------------------------------------------------------------
 Center     Atomic      Atomic             Coordinates (Angstroms)
 Number     Number       Type             X           Y           Z
 ---------------------------------------------------------------------
      1          6           0        2.148043    0.312785   -0.022848
      2          1           0        2.308659    0.945883   -0.894819
      3          1           0        2.989290    0.231493    0.662979
      4          6           0        0.786232    0.078846    0.477499
      5          1           0        0.663636   -0.179598    1.528656
      6          6           0       -0.380176    0.770138   -0.152610
      7          1           0       -0.212435    0.933209   -1.216017
      8          1           0       -0.568045    1.723774    0.339800
      9         17           0       -1.891454   -0.197620    0.000890
     10          8           0        1.456128   -0.908230   -0.280997
 ---------------------------------------------------------------------
 Rotational constants (GHZ):          13.6193231           2.0412124           1.9002428
 Leave Link  202 at Tue May 12 14:11:58 2026, MaxMem=  4026531840 cpu:               0.0 elap:               0.0
 (Enter /opt/apps/eb/software/Gaussian/16.C.02-AVX2/g16/l301.exe)
 Standard basis: 6-31+G(d,p) (6D, 7F)
 Ernie: Thresh=  0.10000D-02 Tol=  0.10000D-05 Strict=F.
 There are   124 symmetry adapted cartesian basis functions of A   symmetry.
 There are   124 symmetry adapted basis functions of A   symmetry.
   124 basis functions,   219 primitive gaussians,   124 cartesian basis functions
    24 alpha electrons       24 beta electrons
       nuclear repulsion energy       215.8455254975 Hartrees.
 IExCor= 4639 DFT=T Ex+Corr=wB97XD ExCW=0 ScaHFX=  1.000000
 ScaDFX=  1.000000  1.000000  1.000000  1.000000 ScalE2=  1.000000  1.000000
 IRadAn=      5 IRanWt=     -1 IRanGd=            0 ICorTp=0 IEmpDi=121
 HFx  wShort=  0.000000 wLong=  0.200000 cFull=  0.222036 cShort=  0.000000 cLong=  0.777964
 DFx  wShort=  0.000000 wLong=  0.200000 cFull=  0.000000 cShort=  0.000000 cLong=  1.000000
 NAtoms=   10 NActive=   10 NUniq=   10 SFac= 1.00D+00 NAtFMM=   60 NAOKFM=F Big=F
 Integral buffers will be    131072 words long.
 Raffenetti 2 integral format.
 Two-electron integral symmetry is turned on.
 R6Disp:  Grimme-D2 Dispersion energy=       -0.0033109100 Hartrees.
 Nuclear repulsion after empirical dispersion term =      215.8422145875 Hartrees.
 Leave Link  301 at Tue May 12 14:11:58 2026, MaxMem=  4026531840 cpu:               0.1 elap:               0.0
 (Enter /opt/apps/eb/software/Gaussian/16.C.02-AVX2/g16/l302.exe)
 NPDir=0 NMtPBC=     1 NCelOv=     1 NCel=       1 NClECP=     1 NCelD=      1
         NCelK=      1 NCelE2=     1 NClLst=     1 CellRange=     0.0.
 One-electron integrals computed using PRISM.
 One-electron integral symmetry used in STVInt
 NBasis=   124 RedAO= T EigKep=  7.69D-05  NBF=   124
 NBsUse=   124 1.00D-06 EigRej= -1.00D+00 NBFU=   124
 Precomputing XC quadrature grid using
 IXCGrd= 4 IRadAn=           5 IRanWt=          -1 IRanGd=           0 AccXCQ= 1.00D-12.
 Generated NRdTot=       0 NPtTot=           0 NUsed=           0 NTot=          32
 NSgBfM=   124   124   124   124   124 MxSgAt=    10 MxSgA2=    10.
 Leave Link  302 at Tue May 12 14:11:58 2026, MaxMem=  4026531840 cpu:               1.4 elap:               0.2
 (Enter /opt/apps/eb/software/Gaussian/16.C.02-AVX2/g16/l303.exe)
 DipDrv:  MaxL=1.
 Leave Link  303 at Tue May 12 14:11:59 2026, MaxMem=  4026531840 cpu:               0.4 elap:               0.1
 (Enter /opt/apps/eb/software/Gaussian/16.C.02-AVX2/g16/l401.exe)
 Initial guess from the checkpoint file:  "/users/fsw516/Gaussian_Submission/Gau-3497943.chk"
 B after Tr=    -0.000000   -0.000000    0.000000
         Rot=    0.999989   -0.004546   -0.000709    0.000719 Ang=  -0.53 deg.
 Guess basis will be translated and rotated to current coordinates.
 JPrj=2 DoOrth=T DoCkMO=T.
 Generating alternative initial guess.
 ExpMin= 4.38D-02 ExpMax= 2.52D+04 ExpMxC= 3.78D+03 IAcc=3 IRadAn=         5 AccDes= 0.00D+00
 Harris functional with IExCor= 4639 and IRadAn=       5 diagonalized for initial guess.
 HarFok:  IExCor= 4639 AccDes= 0.00D+00 IRadAn=         5 IDoV= 1 UseB2=F ITyADJ=14
 ICtDFT=  3500011 ScaDFX=  1.000000  1.000000  1.000000  1.000000
 FoFCou: FMM=F IPFlag=           0 FMFlag=      100000 FMFlg1=           0
         NFxFlg=           0 DoJE=T BraDBF=F KetDBF=T FulRan=T
         wScrn=  0.000000 ICntrl=       500 IOpCl=  0 I1Cent=   200000004 NGrid=           0
         NMat0=    1 NMatS0=      1 NMatT0=    0 NMatD0=    1 NMtDS0=    0 NMtDT0=    0
 Petite list used in FoFCou.
 Harris En= -636.859486069445    
 Leave Link  401 at Tue May 12 14:11:59 2026, MaxMem=  4026531840 cpu:               2.8 elap:               0.5
 (Enter /opt/apps/eb/software/Gaussian/16.C.02-AVX2/g16/l502.exe)
 Keep R1 ints in memory in canonical form, NReq=76270117.
 FoFCou: FMM=F IPFlag=           0 FMFlag=           0 FMFlg1=           0
         NFxFlg=           0 DoJE=F BraDBF=F KetDBF=F FulRan=T
         wScrn=  0.000000 ICntrl=       600 IOpCl=  0 I1Cent=           0 NGrid=           0
         NMat0=    1 NMatS0=   7750 NMatT0=    0 NMatD0=    1 NMtDS0=    0 NMtDT0=    0
 Symmetry not used in FoFCou.
 Two-electron integral symmetry not used.
 Closed shell SCF:
 Using DIIS extrapolation, IDIIS=  1040.
 NGot=  4026531840 LenX=  3966427239 LenY=  3966411422
 Requested convergence on RMS density matrix=1.00D-08 within 128 cycles.
 Requested convergence on MAX density matrix=1.00D-06.
 Requested convergence on             energy=1.00D-06.
 No special actions if energy rises.

 Cycle   1  Pass 1  IDiag  1:
 E= -652.637327990489    
 DIIS: error= 1.69D-03 at cycle   1 NSaved=   1.
 NSaved= 1 IEnMin= 1 EnMin= -652.637327990489     IErMin= 1 ErrMin= 1.69D-03
 ErrMax= 1.69D-03  0.00D+00 EMaxC= 1.00D-01 BMatC= 7.23D-04 BMatP= 7.23D-04
 IDIUse=3 WtCom= 9.83D-01 WtEn= 1.69D-02
 Coeff-Com:  0.100D+01
 Coeff-En:   0.100D+01
 Coeff:      0.100D+01
 Gap=     0.860 Goal=   None    Shift=    0.000
 GapD=    0.860 DampG=2.000 DampE=1.000 DampFc=2.0000 IDamp=-1.
 RMSDP=1.02D-03 MaxDP=5.95D-02              OVMax= 8.00D-03

 Cycle   2  Pass 1  IDiag  1:
 E= -652.638446332228     Delta-E=       -0.001118341739 Rises=F Damp=F
 DIIS: error= 3.32D-04 at cycle   2 NSaved=   2.
 NSaved= 2 IEnMin= 2 EnMin= -652.638446332228     IErMin= 2 ErrMin= 3.32D-04
 ErrMax= 3.32D-04  0.00D+00 EMaxC= 1.00D-01 BMatC= 3.72D-05 BMatP= 7.23D-04
 IDIUse=3 WtCom= 9.97D-01 WtEn= 3.32D-03
 Coeff-Com: -0.104D+00 0.110D+01
 Coeff-En:   0.000D+00 0.100D+01
 Coeff:     -0.104D+00 0.110D+01
 Gap=     0.431 Goal=   None    Shift=    0.000
 RMSDP=1.91D-04 MaxDP=7.29D-03 DE=-1.12D-03 OVMax= 2.56D-03

 Cycle   3  Pass 1  IDiag  1:
 E= -652.638505331649     Delta-E=       -0.000058999422 Rises=F Damp=F
 DIIS: error= 2.84D-04 at cycle   3 NSaved=   3.
 NSaved= 3 IEnMin= 3 EnMin= -652.638505331649     IErMin= 3 ErrMin= 2.84D-04
 ErrMax= 2.84D-04  0.00D+00 EMaxC= 1.00D-01 BMatC= 2.30D-05 BMatP= 3.72D-05
 IDIUse=3 WtCom= 9.97D-01 WtEn= 2.84D-03
 Coeff-Com: -0.891D-01 0.520D+00 0.569D+00
 Coeff-En:   0.000D+00 0.000D+00 0.100D+01
 Coeff:     -0.889D-01 0.519D+00 0.570D+00
 Gap=     0.432 Goal=   None    Shift=    0.000
 RMSDP=7.45D-05 MaxDP=3.95D-03 DE=-5.90D-05 OVMax= 9.73D-04

 Cycle   4  Pass 1  IDiag  1:
 E= -652.638523643268     Delta-E=       -0.000018311619 Rises=F Damp=F
 DIIS: error= 6.86D-05 at cycle   4 NSaved=   4.
 NSaved= 4 IEnMin= 4 EnMin= -652.638523643268     IErMin= 4 ErrMin= 6.86D-05
 ErrMax= 6.86D-05  0.00D+00 EMaxC= 1.00D-01 BMatC= 1.59D-06 BMatP= 2.30D-05
 IDIUse=1 WtCom= 1.00D+00 WtEn= 0.00D+00
 Coeff-Com: -0.187D-01 0.418D-01 0.205D+00 0.772D+00
 Coeff:     -0.187D-01 0.418D-01 0.205D+00 0.772D+00
 Gap=     0.432 Goal=   None    Shift=    0.000
 RMSDP=1.87D-05 MaxDP=3.07D-04 DE=-1.83D-05 OVMax= 3.90D-04

 Cycle   5  Pass 1  IDiag  1:
 E= -652.638525209819     Delta-E=       -0.000001566551 Rises=F Damp=F
 DIIS: error= 2.84D-05 at cycle   5 NSaved=   5.
 NSaved= 5 IEnMin= 5 EnMin= -652.638525209819     IErMin= 5 ErrMin= 2.84D-05
 ErrMax= 2.84D-05  0.00D+00 EMaxC= 1.00D-01 BMatC= 1.81D-07 BMatP= 1.59D-06
 IDIUse=1 WtCom= 1.00D+00 WtEn= 0.00D+00
 Coeff-Com:  0.477D-02-0.529D-01 0.379D-02 0.278D+00 0.766D+00
 Coeff:      0.477D-02-0.529D-01 0.379D-02 0.278D+00 0.766D+00
 Gap=     0.432 Goal=   None    Shift=    0.000
 RMSDP=9.41D-06 MaxDP=2.13D-04 DE=-1.57D-06 OVMax= 1.76D-04

 Cycle   6  Pass 1  IDiag  1:
 E= -652.638525450689     Delta-E=       -0.000000240870 Rises=F Damp=F
 DIIS: error= 7.03D-06 at cycle   6 NSaved=   6.
 NSaved= 6 IEnMin= 6 EnMin= -652.638525450689     IErMin= 6 ErrMin= 7.03D-06
 ErrMax= 7.03D-06  0.00D+00 EMaxC= 1.00D-01 BMatC= 1.27D-08 BMatP= 1.81D-07
 IDIUse=1 WtCom= 1.00D+00 WtEn= 0.00D+00
 Coeff-Com:  0.301D-02-0.187D-01-0.161D-01 0.443D-02 0.216D+00 0.811D+00
 Coeff:      0.301D-02-0.187D-01-0.161D-01 0.443D-02 0.216D+00 0.811D+00
 Gap=     0.432 Goal=   None    Shift=    0.000
 RMSDP=4.57D-06 MaxDP=1.43D-04 DE=-2.41D-07 OVMax= 7.54D-05

 Cycle   7  Pass 1  IDiag  1:
 E= -652.638525472727     Delta-E=       -0.000000022039 Rises=F Damp=F
 DIIS: error= 1.94D-06 at cycle   7 NSaved=   7.
 NSaved= 7 IEnMin= 7 EnMin= -652.638525472727     IErMin= 7 ErrMin= 1.94D-06
 ErrMax= 1.94D-06  0.00D+00 EMaxC= 1.00D-01 BMatC= 1.04D-09 BMatP= 1.27D-08
 IDIUse=1 WtCom= 1.00D+00 WtEn= 0.00D+00
 Coeff-Com:  0.809D-04 0.178D-02-0.312D-02-0.258D-01-0.376D-01 0.153D+00
 Coeff-Com:  0.911D+00
 Coeff:      0.809D-04 0.178D-02-0.312D-02-0.258D-01-0.376D-01 0.153D+00
 Coeff:      0.911D+00
 Gap=     0.432 Goal=   None    Shift=    0.000
 RMSDP=1.42D-06 MaxDP=4.56D-05 DE=-2.20D-08 OVMax= 3.36D-05

 Cycle   8  Pass 1  IDiag  1:
 E= -652.638525475163     Delta-E=       -0.000000002435 Rises=F Damp=F
 DIIS: error= 7.55D-07 at cycle   8 NSaved=   8.
 NSaved= 8 IEnMin= 8 EnMin= -652.638525475163     IErMin= 8 ErrMin= 7.55D-07
 ErrMax= 7.55D-07  0.00D+00 EMaxC= 1.00D-01 BMatC= 1.78D-10 BMatP= 1.04D-09
 IDIUse=1 WtCom= 1.00D+00 WtEn= 0.00D+00
 Coeff-Com: -0.321D-03 0.276D-02 0.103D-02-0.816D-02-0.392D-01-0.529D-01
 Coeff-Com:  0.301D+00 0.796D+00
 Coeff:     -0.321D-03 0.276D-02 0.103D-02-0.816D-02-0.392D-01-0.529D-01
 Coeff:      0.301D+00 0.796D+00
 Gap=     0.432 Goal=   None    Shift=    0.000
 RMSDP=5.72D-07 MaxDP=1.82D-05 DE=-2.44D-09 OVMax= 1.07D-05

 Cycle   9  Pass 1  IDiag  1:
 E= -652.638525475480     Delta-E=       -0.000000000317 Rises=F Damp=F
 DIIS: error= 1.79D-07 at cycle   9 NSaved=   9.
 NSaved= 9 IEnMin= 9 EnMin= -652.638525475480     IErMin= 9 ErrMin= 1.79D-07
 ErrMax= 1.79D-07  0.00D+00 EMaxC= 1.00D-01 BMatC= 1.01D-11 BMatP= 1.78D-10
 IDIUse=1 WtCom= 1.00D+00 WtEn= 0.00D+00
 Coeff-Com: -0.814D-04 0.470D-03 0.547D-03 0.376D-03-0.599D-02-0.277D-01
 Coeff-Com: -0.920D-02 0.163D+00 0.879D+00
 Coeff:     -0.814D-04 0.470D-03 0.547D-03 0.376D-03-0.599D-02-0.277D-01
 Coeff:     -0.920D-02 0.163D+00 0.879D+00
 Gap=     0.432 Goal=   None    Shift=    0.000
 RMSDP=1.74D-07 MaxDP=7.14D-06 DE=-3.17D-10 OVMax= 3.20D-06

 Cycle  10  Pass 1  IDiag  1:
 E= -652.638525475501     Delta-E=       -0.000000000021 Rises=F Damp=F
 DIIS: error= 4.65D-08 at cycle  10 NSaved=  10.
 NSaved=10 IEnMin=10 EnMin= -652.638525475501     IErMin=10 ErrMin= 4.65D-08
 ErrMax= 4.65D-08  0.00D+00 EMaxC= 1.00D-01 BMatC= 8.34D-13 BMatP= 1.01D-11
 IDIUse=1 WtCom= 1.00D+00 WtEn= 0.00D+00
 Coeff-Com:  0.161D-04-0.183D-03 0.186D-04 0.897D-03 0.270D-02-0.258D-03
 Coeff-Com: -0.295D-01-0.472D-01 0.174D+00 0.899D+00
 Coeff:      0.161D-04-0.183D-03 0.186D-04 0.897D-03 0.270D-02-0.258D-03
 Coeff:     -0.295D-01-0.472D-01 0.174D+00 0.899D+00
 Gap=     0.432 Goal=   None    Shift=    0.000
 RMSDP=4.32D-08 MaxDP=1.70D-06 DE=-2.11D-11 OVMax= 7.82D-07

 Cycle  11  Pass 1  IDiag  1:
 E= -652.638525475505     Delta-E=       -0.000000000004 Rises=F Damp=F
 DIIS: error= 1.03D-08 at cycle  11 NSaved=  11.
 NSaved=11 IEnMin=11 EnMin= -652.638525475505     IErMin=11 ErrMin= 1.03D-08
 ErrMax= 1.03D-08  0.00D+00 EMaxC= 1.00D-01 BMatC= 5.70D-14 BMatP= 8.34D-13
 IDIUse=1 WtCom= 1.00D+00 WtEn= 0.00D+00
 Coeff-Com:  0.758D-05-0.605D-04-0.244D-04 0.167D-03 0.834D-03 0.153D-02
 Coeff-Com: -0.491D-02-0.180D-01-0.179D-01 0.185D+00 0.853D+00
 Coeff:      0.758D-05-0.605D-04-0.244D-04 0.167D-03 0.834D-03 0.153D-02
 Coeff:     -0.491D-02-0.180D-01-0.179D-01 0.185D+00 0.853D+00
 Gap=     0.432 Goal=   None    Shift=    0.000
 RMSDP=1.42D-08 MaxDP=7.97D-07 DE=-3.87D-12 OVMax= 1.33D-07

 Cycle  12  Pass 1  IDiag  1:
 E= -652.638525475501     Delta-E=        0.000000000004 Rises=F Damp=F
 DIIS: error= 4.31D-09 at cycle  12 NSaved=  12.
 NSaved=12 IEnMin=11 EnMin= -652.638525475505     IErMin=12 ErrMin= 4.31D-09
 ErrMax= 4.31D-09  0.00D+00 EMaxC= 1.00D-01 BMatC= 7.78D-15 BMatP= 5.70D-14
 IDIUse=1 WtCom= 1.00D+00 WtEn= 0.00D+00
 Coeff-Com:  0.282D-06 0.386D-05-0.905D-05-0.555D-04-0.833D-04 0.454D-03
 Coeff-Com:  0.193D-02-0.270D-03-0.257D-01-0.441D-01 0.250D+00 0.818D+00
 Coeff:      0.282D-06 0.386D-05-0.905D-05-0.555D-04-0.833D-04 0.454D-03
 Coeff:      0.193D-02-0.270D-03-0.257D-01-0.441D-01 0.250D+00 0.818D+00
 Gap=     0.432 Goal=   None    Shift=    0.000
 RMSDP=4.10D-09 MaxDP=1.92D-07 DE= 4.09D-12 OVMax= 4.55D-08

 SCF Done:  E(RwB97XD) =  -652.638525476     A.U. after   12 cycles
            NFock= 12  Conv=0.41D-08     -V/T= 2.0047
 KE= 6.495678839209D+02 PE=-1.973845989767D+03 EE= 4.557973657831D+02
 Leave Link  502 at Tue May 12 14:12:01 2026, MaxMem=  4026531840 cpu:              21.2 elap:               2.3
 (Enter /opt/apps/eb/software/Gaussian/16.C.02-AVX2/g16/l701.exe)
 ... and contract with generalized density number  0.
 Compute integral first derivatives.
 R6Disp: Adding Grimme-D2 dispersion energy 1st derivatives to the gradient.
 Leave Link  701 at Tue May 12 14:12:02 2026, MaxMem=  4026531840 cpu:               2.4 elap:               0.2
 (Enter /opt/apps/eb/software/Gaussian/16.C.02-AVX2/g16/l702.exe)
 L702 exits ... SP integral derivatives will be done elsewhere.
 Leave Link  702 at Tue May 12 14:12:02 2026, MaxMem=  4026531840 cpu:               0.0 elap:               0.0
 (Enter /opt/apps/eb/software/Gaussian/16.C.02-AVX2/g16/l703.exe)
 Integral derivatives from FoFJK, PRISM(SPDF).
 Compute integral first derivatives, UseDBF=F ICtDFT=           0.
 Calling FoFJK, ICntrl=      2127 FMM=F ISym2X=0 I1Cent= 0 IOpClX= 0 NMat=1 NMatS=1 NMatT=0.
 FoFJK:  IHMeth= 1 ICntrl=    2127 DoSepK=T KAlg= 0 I1Cent=           0 FoldK=F
 IRaf=         1 NMat=       1 IRICut=       1 DoRegI=T DoRafI=F ISym2E= 0 IDoP0=0 IntGTp=1.
 FoFCou: FMM=F IPFlag=           0 FMFlag=      100000 FMFlg1=         800
         NFxFlg=           0 DoJE=F BraDBF=F KetDBF=F FulRan=T
         wScrn=  0.000000 ICntrl=      2527 IOpCl=  0 I1Cent=           0 NGrid=           0
         NMat0=    1 NMatS0=      1 NMatT0=    0 NMatD0=    1 NMtDS0=    0 NMtDT0=    0
 Symmetry not used in FoFCou.
 Leave Link  703 at Tue May 12 14:12:02 2026, MaxMem=  4026531840 cpu:               7.9 elap:               0.8
 (Enter /opt/apps/eb/software/Gaussian/16.C.02-AVX2/g16/l716.exe)
 Dipole        = 7.45318614D-01 1.15176559D+00 2.56787054D-01
 ***** Axes restored to original set *****
 -------------------------------------------------------------------
 Center     Atomic                   Forces (Hartrees/Bohr)
 Number     Number              X              Y              Z
 -------------------------------------------------------------------
      1        6          -0.000262098   -0.002658313   -0.000121776
      2        1          -0.000698710   -0.000051697    0.000431364
      3        1          -0.000387268    0.000359476   -0.000211763
      4        6           0.002714718    0.000180771    0.003520815
      5        1          -0.000627466    0.000464928    0.000483824
      6        6          -0.002547449   -0.000220636   -0.001274981
      7        1           0.000686595   -0.000198317   -0.001295061
      8        1          -0.000176221    0.001124881    0.000630203
      9       17           0.000202683   -0.000043269    0.000160414
     10        8           0.001095216    0.001042175   -0.002323039
 -------------------------------------------------------------------
 Cartesian Forces:  Max     0.003520815 RMS     0.001272657
 Leave Link  716 at Tue May 12 14:12:03 2026, MaxMem=  4026531840 cpu:               0.2 elap:               0.0
 (Enter /opt/apps/eb/software/Gaussian/16.C.02-AVX2/g16/l103.exe)

 GradGradGradGradGradGradGradGradGradGradGradGradGradGradGradGradGradGrad
 Berny optimization.
 Using GEDIIS/GDIIS optimizer.
 FormGI is forming the generalized inverse of G from B-inverse, IUseBI=4.
 Internal  Forces:  Max     0.002482547 RMS     0.000809266
 Search for a local minimum.
 Step number   3 out of a maximum of   49
 All quantities printed in internal units (Hartrees-Bohrs-Radians)
 RMS Force = .80927D-03 SwitMx=.10000D-02 MixMth= 2
 Mixed Optimization -- En-DIIS/RFO-DIIS
 Update second derivatives using D2CorX and points    1    2    3
 DE= -9.89D-04 DEPred=-9.49D-04 R= 1.04D+00
 TightC=F SS=  1.41D+00  RLast= 1.59D-01 DXNew= 8.4853D-01 4.7787D-01
 Trust test= 1.04D+00 RLast= 1.59D-01 DXMaxT set to 5.05D-01
 ITU=  1  1  0
 Use linear search instead of GDIIS.
     Eigenvalues ---    0.01561   0.03019   0.03387   0.04421   0.06189
     Eigenvalues ---    0.06581   0.13253   0.14289   0.15939   0.16000
     Eigenvalues ---    0.16017   0.16275   0.20406   0.22656   0.25606
     Eigenvalues ---    0.27963   0.29677   0.30193   0.31461   0.33874
     Eigenvalues ---    0.36361   0.38962   0.41498   0.43526
 RFO step:  Lambda=-1.44135016D-04 EMin= 1.56125988D-02
 Quartic linear search produced a step of  0.07639.
 Iteration  1 RMS(Cart)=  0.00765448 RMS(Int)=  0.00007973
 Iteration  2 RMS(Cart)=  0.00006716 RMS(Int)=  0.00003627
 Iteration  3 RMS(Cart)=  0.00000001 RMS(Int)=  0.00003627
 ITry= 1 IFail=0 DXMaxC= 1.74D-02 DCOld= 1.00D+10 DXMaxT= 5.05D-01 DXLimC= 3.00D+00 Rises=F
 Variable       Old X    -DE/DX   Delta X   Delta X   Delta X     New X
                                 (Linear)    (Quad)   (Total)
    R1        2.05880  -0.00048   0.00048  -0.00060  -0.00013   2.05867
    R2        2.05682  -0.00046   0.00048  -0.00067  -0.00019   2.05663
    R3        2.77706  -0.00103  -0.00012  -0.00184  -0.00196   2.77510
    R4        2.69660  -0.00106  -0.00222  -0.00583  -0.00804   2.68856
    R5        2.05863   0.00043  -0.00037   0.00108   0.00071   2.05935
    R6        2.82540   0.00248   0.00154   0.00711   0.00865   2.83405
    R7        2.67141   0.00146  -0.00172   0.00577   0.00404   2.67545
    R8        2.05760   0.00134  -0.00091   0.00435   0.00344   2.06104
    R9        2.05901   0.00130  -0.00095   0.00426   0.00331   2.06231
   R10        3.40365  -0.00013  -0.00104  -0.00043  -0.00148   3.40217
    A1        2.01947   0.00031   0.00155   0.00205   0.00355   2.02302
    A2        2.09627  -0.00054  -0.00123  -0.00706  -0.00833   2.08794
    A3        2.00857  -0.00129  -0.00012  -0.00065  -0.00077   2.00780
    A4        2.08267  -0.00008  -0.00055  -0.00135  -0.00195   2.08072
    A5        2.00959   0.00088  -0.00025   0.00675   0.00650   2.01609
    A6        2.06074   0.00031   0.00368   0.00265   0.00628   2.06702
    A7        2.10116   0.00007  -0.00095   0.00051  -0.00050   2.10066
    A8        2.01368  -0.00012  -0.00021   0.00037   0.00004   2.01372
    A9        1.98822   0.00137  -0.00130   0.01006   0.00874   1.99696
   A10        2.05602  -0.00129  -0.00130  -0.01286  -0.01419   2.04183
   A11        1.93977  -0.00076  -0.00130  -0.00528  -0.00660   1.93317
   A12        1.92701   0.00017   0.00046   0.00103   0.00150   1.92851
   A13        1.95007  -0.00038  -0.00068  -0.00151  -0.00222   1.94785
   A14        1.91437   0.00038   0.00146   0.00279   0.00426   1.91863
   A15        1.86812   0.00051  -0.00137   0.00205   0.00062   1.86874
   A16        1.86197   0.00016   0.00160   0.00129   0.00289   1.86486
    D1       -2.70180   0.00045  -0.00324   0.01432   0.01101  -2.69079
    D2       -0.06397   0.00097   0.00178   0.02212   0.02394  -0.04004
    D3       -0.00913  -0.00027  -0.00342  -0.00104  -0.00450  -0.01364
    D4        2.62869   0.00025   0.00160   0.00677   0.00842   2.63712
    D5        0.56027  -0.00046  -0.00096  -0.00128  -0.00224   0.55802
    D6       -1.56822  -0.00054  -0.00226  -0.00194  -0.00418  -1.57241
    D7        2.64574  -0.00060  -0.00412  -0.00327  -0.00736   2.63838
    D8       -3.07223   0.00016   0.00513   0.00695   0.01203  -3.06020
    D9        1.08246   0.00009   0.00384   0.00628   0.01009   1.09256
   D10       -0.98675   0.00003   0.00197   0.00496   0.00692  -0.97984
   D11       -0.64221   0.00067   0.00063   0.00787   0.00849  -0.63372
   D12       -2.77071   0.00060  -0.00067   0.00721   0.00655  -2.76415
   D13        1.44326   0.00054  -0.00253   0.00588   0.00338   1.44664
         Item               Value     Threshold  Converged?
 Maximum Force            0.002483     0.000450     NO 
 RMS     Force            0.000809     0.000300     NO 
 Maximum Displacement     0.017422     0.001800     NO 
 RMS     Displacement     0.007677     0.001200     NO 
 Predicted change in Energy=-7.727933D-05
 Lowest energy point so far.  Saving SCF results.
 GradGradGradGradGradGradGradGradGradGradGradGradGradGradGradGradGradGrad

 Leave Link  103 at Tue May 12 14:12:03 2026, MaxMem=  4026531840 cpu:               0.2 elap:               0.0
 (Enter /opt/apps/eb/software/Gaussian/16.C.02-AVX2/g16/l202.exe)
                          Input orientation:                          
 ---------------------------------------------------------------------
 Center     Atomic      Atomic             Coordinates (Angstroms)
 Number     Number       Type             X           Y           Z
 ---------------------------------------------------------------------
      1          6           0        2.141894    0.287932   -0.014379
      2          1           0        2.300792    0.927889   -0.881562
      3          1           0        2.983183    0.196877    0.670008
      4          6           0        0.779774    0.076403    0.492015
      5          1           0        0.651072   -0.180105    1.543306
      6          6           0       -0.383232    0.776129   -0.145904
      7          1           0       -0.208406    0.923097   -1.212376
      8          1           0       -0.562553    1.737902    0.337663
      9         17           0       -1.900679   -0.179380    0.014157
     10          8           0        1.432485   -0.916993   -0.277127
 ---------------------------------------------------------------------
                    Distance matrix (angstroms):
                    1          2          3          4          5
     1  C    0.000000
     2  H    1.089403   0.000000
     3  H    1.088321   1.845916   0.000000
     4  C    1.468520   2.219288   2.213866   0.000000
     5  H    2.206353   3.135158   2.518632   1.089759   0.000000
     6  C    2.575247   2.787151   3.511978   1.499714   2.199454
     7  H    2.713401   2.530917   3.775845   2.144374   3.090234
     8  H    3.088751   3.215801   3.880393   2.141552   2.570061
     9  Cl   4.069593   4.436296   4.942045   2.734703   2.974849
    10  O    1.422724   2.126709   2.131299   1.415785   2.113667
                    6          7          8          9         10
     6  C    0.000000
     7  H    1.090654   0.000000
     8  H    1.091330   1.786603   0.000000
     9  Cl   1.800351   2.362970   2.360341   0.000000
    10  O    2.486103   2.636882   3.377368   3.426208   0.000000
 Stoichiometry    C3H5ClO
 Framework group  C1[X(C3H5ClO)]
 Deg. of freedom    24
 Full point group                 C1      NOp   1
 RotChk:  IX=0 Diff= 7.30D-03
 Largest Abelian subgroup         C1      NOp   1
 Largest concise Abelian subgroup C1      NOp   1
                         Standard orientation:                         
 ---------------------------------------------------------------------
 Center     Atomic      Atomic             Coordinates (Angstroms)
 Number     Number       Type             X           Y           Z
 ---------------------------------------------------------------------
      1          6           0        2.148701    0.306455   -0.022110
      2          1           0        2.302699    0.946592   -0.890043
      3          1           0        2.989988    0.224173    0.663388
      4          6           0        0.787998    0.083082    0.483009
      5          1           0        0.660434   -0.173077    1.534524
      6          6           0       -0.380672    0.771102   -0.157287
      7          1           0       -0.205957    0.918129   -1.223769
      8          1           0       -0.569442    1.731878    0.324662
      9         17           0       -1.889412   -0.198158    0.002407
     10          8           0        1.450765   -0.905356   -0.283919
 ---------------------------------------------------------------------
 Rotational constants (GHZ):          13.6099243           2.0441176           1.9043517
 Leave Link  202 at Tue May 12 14:12:03 2026, MaxMem=  4026531840 cpu:               0.3 elap:               0.1
 (Enter /opt/apps/eb/software/Gaussian/16.C.02-AVX2/g16/l301.exe)
 Standard basis: 6-31+G(d,p) (6D, 7F)
 Ernie: Thresh=  0.10000D-02 Tol=  0.10000D-05 Strict=F.
 There are   124 symmetry adapted cartesian basis functions of A   symmetry.
 There are   124 symmetry adapted basis functions of A   symmetry.
   124 basis functions,   219 primitive gaussians,   124 cartesian basis functions
    24 alpha electrons       24 beta electrons
       nuclear repulsion energy       215.9071113509 Hartrees.
 IExCor= 4639 DFT=T Ex+Corr=wB97XD ExCW=0 ScaHFX=  1.000000
 ScaDFX=  1.000000  1.000000  1.000000  1.000000 ScalE2=  1.000000  1.000000
 IRadAn=      5 IRanWt=     -1 IRanGd=            0 ICorTp=0 IEmpDi=121
 HFx  wShort=  0.000000 wLong=  0.200000 cFull=  0.222036 cShort=  0.000000 cLong=  0.777964
 DFx  wShort=  0.000000 wLong=  0.200000 cFull=  0.000000 cShort=  0.000000 cLong=  1.000000
 NAtoms=   10 NActive=   10 NUniq=   10 SFac= 1.00D+00 NAtFMM=   60 NAOKFM=F Big=F
 Integral buffers will be    131072 words long.
 Raffenetti 2 integral format.
 Two-electron integral symmetry is turned on.
 R6Disp:  Grimme-D2 Dispersion energy=       -0.0033125196 Hartrees.
 Nuclear repulsion after empirical dispersion term =      215.9037988313 Hartrees.
 Leave Link  301 at Tue May 12 14:12:03 2026, MaxMem=  4026531840 cpu:               0.1 elap:               0.0
 (Enter /opt/apps/eb/software/Gaussian/16.C.02-AVX2/g16/l302.exe)
 NPDir=0 NMtPBC=     1 NCelOv=     1 NCel=       1 NClECP=     1 NCelD=      1
         NCelK=      1 NCelE2=     1 NClLst=     1 CellRange=     0.0.
 One-electron integrals computed using PRISM.
 One-electron integral symmetry used in STVInt
 NBasis=   124 RedAO= T EigKep=  7.81D-05  NBF=   124
 NBsUse=   124 1.00D-06 EigRej= -1.00D+00 NBFU=   124
 Precomputing XC quadrature grid using
 IXCGrd= 4 IRadAn=           5 IRanWt=          -1 IRanGd=           0 AccXCQ= 1.00D-12.
 Generated NRdTot=       0 NPtTot=           0 NUsed=           0 NTot=          32
 NSgBfM=   124   124   124   124   124 MxSgAt=    10 MxSgA2=    10.
 Leave Link  302 at Tue May 12 14:12:03 2026, MaxMem=  4026531840 cpu:               1.1 elap:               0.2
 (Enter /opt/apps/eb/software/Gaussian/16.C.02-AVX2/g16/l303.exe)
 DipDrv:  MaxL=1.
 Leave Link  303 at Tue May 12 14:12:03 2026, MaxMem=  4026531840 cpu:               0.4 elap:               0.1
 (Enter /opt/apps/eb/software/Gaussian/16.C.02-AVX2/g16/l401.exe)
 Initial guess from the checkpoint file:  "/users/fsw516/Gaussian_Submission/Gau-3497943.chk"
 B after Tr=    -0.000000   -0.000000   -0.000000
         Rot=    0.999999    0.001324   -0.000077    0.000216 Ang=   0.15 deg.
 Guess basis will be translated and rotated to current coordinates.
 JPrj=2 DoOrth=T DoCkMO=T.
 Leave Link  401 at Tue May 12 14:12:03 2026, MaxMem=  4026531840 cpu:               0.5 elap:               0.1
 (Enter /opt/apps/eb/software/Gaussian/16.C.02-AVX2/g16/l502.exe)
 Keep R1 ints in memory in canonical form, NReq=76270117.
 FoFCou: FMM=F IPFlag=           0 FMFlag=           0 FMFlg1=           0
         NFxFlg=           0 DoJE=F BraDBF=F KetDBF=F FulRan=T
         wScrn=  0.000000 ICntrl=       600 IOpCl=  0 I1Cent=           0 NGrid=           0
         NMat0=    1 NMatS0=   7750 NMatT0=    0 NMatD0=    1 NMtDS0=    0 NMtDT0=    0
 Symmetry not used in FoFCou.
 Two-electron integral symmetry not used.
 Closed shell SCF:
 Using DIIS extrapolation, IDIIS=  1040.
 NGot=  4026531840 LenX=  3966427239 LenY=  3966411422
 Requested convergence on RMS density matrix=1.00D-08 within 128 cycles.
 Requested convergence on MAX density matrix=1.00D-06.
 Requested convergence on             energy=1.00D-06.
 No special actions if energy rises.

 Cycle   1  Pass 1  IDiag  1:
 E= -652.638484582530    
 DIIS: error= 5.91D-04 at cycle   1 NSaved=   1.
 NSaved= 1 IEnMin= 1 EnMin= -652.638484582530     IErMin= 1 ErrMin= 5.91D-04
 ErrMax= 5.91D-04  0.00D+00 EMaxC= 1.00D-01 BMatC= 7.45D-05 BMatP= 7.45D-05
 IDIUse=3 WtCom= 9.94D-01 WtEn= 5.91D-03
 Coeff-Com:  0.100D+01
 Coeff-En:   0.100D+01
 Coeff:      0.100D+01
 Gap=     0.863 Goal=   None    Shift=    0.000
 RMSDP=2.39D-04 MaxDP=9.60D-03              OVMax= 2.52D-03

 Cycle   2  Pass 1  IDiag  1:
 E= -652.638603717071     Delta-E=       -0.000119134540 Rises=F Damp=F
 DIIS: error= 9.48D-05 at cycle   2 NSaved=   2.
 NSaved= 2 IEnMin= 2 EnMin= -652.638603717071     IErMin= 2 ErrMin= 9.48D-05
 ErrMax= 9.48D-05  0.00D+00 EMaxC= 1.00D-01 BMatC= 3.88D-06 BMatP= 7.45D-05
 IDIUse=1 WtCom= 1.00D+00 WtEn= 0.00D+00
 Coeff-Com: -0.124D+00 0.112D+01
 Coeff:     -0.124D+00 0.112D+01
 Gap=     0.432 Goal=   None    Shift=    0.000
 RMSDP=5.66D-05 MaxDP=1.49D-03 DE=-1.19D-04 OVMax= 1.11D-03

 Cycle   3  Pass 1  IDiag  1:
 E= -652.638610084029     Delta-E=       -0.000006366958 Rises=F Damp=F
 DIIS: error= 6.94D-05 at cycle   3 NSaved=   3.
 NSaved= 3 IEnMin= 3 EnMin= -652.638610084029     IErMin= 3 ErrMin= 6.94D-05
 ErrMax= 6.94D-05  0.00D+00 EMaxC= 1.00D-01 BMatC= 2.16D-06 BMatP= 3.88D-06
 IDIUse=1 WtCom= 1.00D+00 WtEn= 0.00D+00
 Coeff-Com: -0.964D-01 0.523D+00 0.573D+00
 Coeff:     -0.964D-01 0.523D+00 0.573D+00
 Gap=     0.432 Goal=   None    Shift=    0.000
 RMSDP=2.55D-05 MaxDP=1.33D-03 DE=-6.37D-06 OVMax= 3.25D-04

 Cycle   4  Pass 1  IDiag  1:
 E= -652.638612019423     Delta-E=       -0.000001935395 Rises=F Damp=F
 DIIS: error= 2.19D-05 at cycle   4 NSaved=   4.
 NSaved= 4 IEnMin= 4 EnMin= -652.638612019423     IErMin= 4 ErrMin= 2.19D-05
 ErrMax= 2.19D-05  0.00D+00 EMaxC= 1.00D-01 BMatC= 1.10D-07 BMatP= 2.16D-06
 IDIUse=1 WtCom= 1.00D+00 WtEn= 0.00D+00
 Coeff-Com: -0.152D-01 0.285D-01 0.170D+00 0.817D+00
 Coeff:     -0.152D-01 0.285D-01 0.170D+00 0.817D+00
 Gap=     0.432 Goal=   None    Shift=    0.000
 RMSDP=6.35D-06 MaxDP=1.50D-04 DE=-1.94D-06 OVMax= 1.15D-04

 Cycle   5  Pass 1  IDiag  1:
 E= -652.638612128006     Delta-E=       -0.000000108583 Rises=F Damp=F
 DIIS: error= 1.00D-05 at cycle   5 NSaved=   5.
 NSaved= 5 IEnMin= 5 EnMin= -652.638612128006     IErMin= 5 ErrMin= 1.00D-05
 ErrMax= 1.00D-05  0.00D+00 EMaxC= 1.00D-01 BMatC= 2.63D-08 BMatP= 1.10D-07
 IDIUse=1 WtCom= 1.00D+00 WtEn= 0.00D+00
 Coeff-Com:  0.536D-02-0.548D-01 0.720D-02 0.384D+00 0.659D+00
 Coeff:      0.536D-02-0.548D-01 0.720D-02 0.384D+00 0.659D+00
 Gap=     0.432 Goal=   None    Shift=    0.000
 RMSDP=2.77D-06 MaxDP=6.97D-05 DE=-1.09D-07 OVMax= 4.59D-05

 Cycle   6  Pass 1  IDiag  1:
 E= -652.638612152314     Delta-E=       -0.000000024308 Rises=F Damp=F
 DIIS: error= 1.79D-06 at cycle   6 NSaved=   6.
 NSaved= 6 IEnMin= 6 EnMin= -652.638612152314     IErMin= 6 ErrMin= 1.79D-06
 ErrMax= 1.79D-06  0.00D+00 EMaxC= 1.00D-01 BMatC= 1.12D-09 BMatP= 2.63D-08
 IDIUse=1 WtCom= 1.00D+00 WtEn= 0.00D+00
 Coeff-Com:  0.303D-02-0.199D-01-0.134D-01 0.412D-01 0.203D+00 0.786D+00
 Coeff:      0.303D-02-0.199D-01-0.134D-01 0.412D-01 0.203D+00 0.786D+00
 Gap=     0.432 Goal=   None    Shift=    0.000
 RMSDP=8.83D-07 MaxDP=2.75D-05 DE=-2.43D-08 OVMax= 1.28D-05

 Cycle   7  Pass 1  IDiag  1:
 E= -652.638612153752     Delta-E=       -0.000000001437 Rises=F Damp=F
 DIIS: error= 3.39D-07 at cycle   7 NSaved=   7.
 NSaved= 7 IEnMin= 7 EnMin= -652.638612153752     IErMin= 7 ErrMin= 3.39D-07
 ErrMax= 3.39D-07  0.00D+00 EMaxC= 1.00D-01 BMatC= 5.04D-11 BMatP= 1.12D-09
 IDIUse=1 WtCom= 1.00D+00 WtEn= 0.00D+00
 Coeff-Com:  0.161D-03 0.415D-03-0.266D-02-0.194D-01-0.129D-01 0.122D+00
 Coeff-Com:  0.913D+00
 Coeff:      0.161D-03 0.415D-03-0.266D-02-0.194D-01-0.129D-01 0.122D+00
 Coeff:      0.913D+00
 Gap=     0.432 Goal=   None    Shift=    0.000
 RMSDP=2.88D-07 MaxDP=7.00D-06 DE=-1.44D-09 OVMax= 4.92D-06

 Cycle   8  Pass 1  IDiag  1:
 E= -652.638612153856     Delta-E=       -0.000000000104 Rises=F Damp=F
 DIIS: error= 1.23D-07 at cycle   8 NSaved=   8.
 NSaved= 8 IEnMin= 8 EnMin= -652.638612153856     IErMin= 8 ErrMin= 1.23D-07
 ErrMax= 1.23D-07  0.00D+00 EMaxC= 1.00D-01 BMatC= 8.39D-12 BMatP= 5.04D-11
 IDIUse=1 WtCom= 1.00D+00 WtEn= 0.00D+00
 Coeff-Com: -0.225D-03 0.191D-02 0.504D-03-0.872D-02-0.230D-01-0.458D-01
 Coeff-Com:  0.275D+00 0.800D+00
 Coeff:     -0.225D-03 0.191D-02 0.504D-03-0.872D-02-0.230D-01-0.458D-01
 Coeff:      0.275D+00 0.800D+00
 Gap=     0.432 Goal=   None    Shift=    0.000
 RMSDP=7.71D-08 MaxDP=2.42D-06 DE=-1.04D-10 OVMax= 1.85D-06

 Cycle   9  Pass 1  IDiag  1:
 E= -652.638612153871     Delta-E=       -0.000000000015 Rises=F Damp=F
 DIIS: error= 3.31D-08 at cycle   9 NSaved=   9.
 NSaved= 9 IEnMin= 9 EnMin= -652.638612153871     IErMin= 9 ErrMin= 3.31D-08
 ErrMax= 3.31D-08  0.00D+00 EMaxC= 1.00D-01 BMatC= 3.57D-13 BMatP= 8.39D-12
 IDIUse=1 WtCom= 1.00D+00 WtEn= 0.00D+00
 Coeff-Com: -0.407D-04 0.193D-03 0.292D-03 0.597D-03-0.194D-02-0.182D-01
 Coeff-Com: -0.348D-01 0.106D+00 0.948D+00
 Coeff:     -0.407D-04 0.193D-03 0.292D-03 0.597D-03-0.194D-02-0.182D-01
 Coeff:     -0.348D-01 0.106D+00 0.948D+00
 Gap=     0.432 Goal=   None    Shift=    0.000
 RMSDP=2.72D-08 MaxDP=7.42D-07 DE=-1.52D-11 OVMax= 6.11D-07

 Cycle  10  Pass 1  IDiag  1:
 E= -652.638612153874     Delta-E=       -0.000000000003 Rises=F Damp=F
 DIIS: error= 7.12D-09 at cycle  10 NSaved=  10.
 NSaved=10 IEnMin=10 EnMin= -652.638612153874     IErMin=10 ErrMin= 7.12D-09
 ErrMax= 7.12D-09  0.00D+00 EMaxC= 1.00D-01 BMatC= 2.02D-14 BMatP= 3.57D-13
 IDIUse=1 WtCom= 1.00D+00 WtEn= 0.00D+00
 Coeff-Com:  0.116D-04-0.111D-03-0.502D-05 0.660D-03 0.135D-02 0.960D-03
 Coeff-Com: -0.207D-01-0.419D-01 0.671D-01 0.993D+00
 Coeff:      0.116D-04-0.111D-03-0.502D-05 0.660D-03 0.135D-02 0.960D-03
 Coeff:     -0.207D-01-0.419D-01 0.671D-01 0.993D+00
 Gap=     0.432 Goal=   None    Shift=    0.000
 RMSDP=6.78D-09 MaxDP=1.59D-07 DE=-2.73D-12 OVMax= 1.91D-07

 SCF Done:  E(RwB97XD) =  -652.638612154     A.U. after   10 cycles
            NFock= 10  Conv=0.68D-08     -V/T= 2.0047
 KE= 6.495609897163D+02 PE=-1.973966048616D+03 EE= 4.558626479150D+02
 Leave Link  502 at Tue May 12 14:12:05 2026, MaxMem=  4026531840 cpu:              17.2 elap:               1.8
 (Enter /opt/apps/eb/software/Gaussian/16.C.02-AVX2/g16/l701.exe)
 ... and contract with generalized density number  0.
 Compute integral first derivatives.
 R6Disp: Adding Grimme-D2 dispersion energy 1st derivatives to the gradient.
 Leave Link  701 at Tue May 12 14:12:05 2026, MaxMem=  4026531840 cpu:               2.3 elap:               0.3
 (Enter /opt/apps/eb/software/Gaussian/16.C.02-AVX2/g16/l702.exe)
 L702 exits ... SP integral derivatives will be done elsewhere.
 Leave Link  702 at Tue May 12 14:12:05 2026, MaxMem=  4026531840 cpu:               0.0 elap:               0.0
 (Enter /opt/apps/eb/software/Gaussian/16.C.02-AVX2/g16/l703.exe)
 Integral derivatives from FoFJK, PRISM(SPDF).
 Compute integral first derivatives, UseDBF=F ICtDFT=           0.
 Calling FoFJK, ICntrl=      2127 FMM=F ISym2X=0 I1Cent= 0 IOpClX= 0 NMat=1 NMatS=1 NMatT=0.
 FoFJK:  IHMeth= 1 ICntrl=    2127 DoSepK=T KAlg= 0 I1Cent=           0 FoldK=F
 IRaf=         1 NMat=       1 IRICut=       1 DoRegI=T DoRafI=F ISym2E= 0 IDoP0=0 IntGTp=1.
 FoFCou: FMM=F IPFlag=           0 FMFlag=      100000 FMFlg1=         800
         NFxFlg=           0 DoJE=F BraDBF=F KetDBF=F FulRan=T
         wScrn=  0.000000 ICntrl=      2527 IOpCl=  0 I1Cent=           0 NGrid=           0
         NMat0=    1 NMatS0=      1 NMatT0=    0 NMatD0=    1 NMtDS0=    0 NMtDT0=    0
 Symmetry not used in FoFCou.
 Leave Link  703 at Tue May 12 14:12:06 2026, MaxMem=  4026531840 cpu:               7.9 elap:               0.8
 (Enter /opt/apps/eb/software/Gaussian/16.C.02-AVX2/g16/l716.exe)
 Dipole        = 7.46883584D-01 1.14563237D+00 2.59163391D-01
 ***** Axes restored to original set *****
 -------------------------------------------------------------------
 Center     Atomic                   Forces (Hartrees/Bohr)
 Number     Number              X              Y              Z
 -------------------------------------------------------------------
      1        6          -0.000243866    0.000132937   -0.000156457
      2        1           0.000162812   -0.000060663    0.000343619
      3        1          -0.000056583    0.000030204   -0.000476256
      4        6          -0.000252723    0.000306591    0.001228384
      5        1          -0.000186377   -0.000045956   -0.000028210
      6        6          -0.000160089    0.000031068   -0.000381874
      7        1           0.000257463    0.000041272   -0.000032190
      8        1          -0.000199294    0.000123458   -0.000093600
      9       17           0.000117127    0.000088282    0.000207814
     10        8           0.000561529   -0.000647192   -0.000611229
 -------------------------------------------------------------------
 Cartesian Forces:  Max     0.001228384 RMS     0.000349423
 Leave Link  716 at Tue May 12 14:12:06 2026, MaxMem=  4026531840 cpu:               0.1 elap:               0.0
 (Enter /opt/apps/eb/software/Gaussian/16.C.02-AVX2/g16/l103.exe)

 GradGradGradGradGradGradGradGradGradGradGradGradGradGradGradGradGradGrad
 Berny optimization.
 Using GEDIIS/GDIIS optimizer.
 FormGI is forming the generalized inverse of G from B-inverse, IUseBI=4.
 Internal  Forces:  Max     0.000972590 RMS     0.000261607
 Search for a local minimum.
 Step number   4 out of a maximum of   49
 All quantities printed in internal units (Hartrees-Bohrs-Radians)
 RMS Force = .26161D-03 SwitMx=.10000D-02 MixMth= 2
 Mixed Optimization -- En-DIIS/RFO-DIIS
 Swapping is turned off.
 Update second derivatives using D2CorX and points    1    2    3    4
 DE= -8.67D-05 DEPred=-7.73D-05 R= 1.12D+00
 TightC=F SS=  1.41D+00  RLast= 4.46D-02 DXNew= 8.4853D-01 1.3390D-01
 Trust test= 1.12D+00 RLast= 4.46D-02 DXMaxT set to 5.05D-01
 ITU=  1  1  1  0
     Eigenvalues ---    0.01528   0.02930   0.03201   0.04536   0.06337
     Eigenvalues ---    0.06599   0.11999   0.14409   0.15998   0.16002
     Eigenvalues ---    0.16036   0.16463   0.21680   0.22956   0.25628
     Eigenvalues ---    0.27798   0.29608   0.29960   0.31193   0.35215
     Eigenvalues ---    0.35924   0.38341   0.41420   0.42852
 En-DIIS/RFO-DIIS/Sim-DIIS IScMMF=       -3 using points:     4    3
 RFO step:  Lambda=-1.64164283D-05.
 NNeg= 0 NGDIIS= 2 SimSw=  2.50D-01 Rises=F DC= -8.67D-05 SmlDif=  1.00D-05
 NRisDI= 0 DoIntr=F SqrtH=F CThrHd= 10.0 CDAdj=  3.0
 RMS Error=  0.2642691010D-02 NUsed= 2 OKEnD=T EnDIS=F
 InvSVX:  RCond= 4.97D-04 Info=           0 Equed=N FErr=  1.73D-15 BErr=  4.36D-17
 DidBck=F Rises=F RFO-DIIS coefs:    1.27228   -0.27228
 Iteration  1 RMS(Cart)=  0.00336079 RMS(Int)=  0.00000997
 Iteration  2 RMS(Cart)=  0.00000855 RMS(Int)=  0.00000560
 Iteration  3 RMS(Cart)=  0.00000000 RMS(Int)=  0.00000560
 ITry= 1 IFail=0 DXMaxC= 7.57D-03 DCOld= 1.00D+10 DXMaxT= 5.05D-01 DXLimC= 3.00D+00 Rises=F
 Variable       Old X    -DE/DX   Delta X   Delta X   Delta X     New X
                                 (Linear)    (Quad)   (Total)
    R1        2.05867  -0.00028  -0.00003  -0.00049  -0.00053   2.05815
    R2        2.05663  -0.00035  -0.00005  -0.00069  -0.00074   2.05588
    R3        2.77510  -0.00007  -0.00053   0.00058   0.00004   2.77514
    R4        2.68856   0.00013  -0.00219   0.00090  -0.00130   2.68726
    R5        2.05935   0.00001   0.00019  -0.00029  -0.00010   2.05925
    R6        2.83405   0.00024   0.00236  -0.00065   0.00171   2.83575
    R7        2.67545   0.00097   0.00110   0.00237   0.00347   2.67892
    R8        2.06104   0.00008   0.00094  -0.00064   0.00029   2.06133
    R9        2.06231   0.00010   0.00090  -0.00063   0.00027   2.06259
   R10        3.40217  -0.00013  -0.00040  -0.00035  -0.00075   3.40142
    A1        2.02302  -0.00038   0.00097  -0.00289  -0.00193   2.02109
    A2        2.08794   0.00002  -0.00227   0.00143  -0.00085   2.08709
    A3        2.00780   0.00005  -0.00021   0.00122   0.00102   2.00882
    A4        2.08072   0.00040  -0.00053   0.00325   0.00270   2.08342
    A5        2.01609  -0.00016   0.00177  -0.00269  -0.00093   2.01517
    A6        2.06702   0.00042   0.00171   0.00212   0.00382   2.07085
    A7        2.10066  -0.00051  -0.00014  -0.00260  -0.00275   2.09791
    A8        2.01372   0.00012   0.00001   0.00086   0.00086   2.01458
    A9        1.99696   0.00004   0.00238  -0.00148   0.00090   1.99786
   A10        2.04183  -0.00005  -0.00386   0.00060  -0.00327   2.03856
   A11        1.93317  -0.00028  -0.00180  -0.00069  -0.00249   1.93068
   A12        1.92851   0.00038   0.00041   0.00199   0.00240   1.93090
   A13        1.94785  -0.00024  -0.00060  -0.00066  -0.00127   1.94658
   A14        1.91863  -0.00005   0.00116  -0.00116   0.00000   1.91863
   A15        1.86874   0.00033   0.00017   0.00221   0.00237   1.87111
   A16        1.86486  -0.00013   0.00079  -0.00174  -0.00095   1.86391
    D1       -2.69079   0.00002   0.00300  -0.00183   0.00116  -2.68962
    D2       -0.04004   0.00011   0.00652  -0.00072   0.00580  -0.03424
    D3       -0.01364   0.00002  -0.00123   0.00170   0.00047  -0.01317
    D4        2.63712   0.00011   0.00229   0.00280   0.00510   2.64222
    D5        0.55802  -0.00015  -0.00061   0.00037  -0.00024   0.55779
    D6       -1.57241  -0.00015  -0.00114   0.00095  -0.00018  -1.57258
    D7        2.63838  -0.00008  -0.00200   0.00226   0.00026   2.63864
    D8       -3.06020   0.00002   0.00328   0.00182   0.00509  -3.05510
    D9        1.09256   0.00002   0.00275   0.00241   0.00515   1.09771
   D10       -0.97984   0.00009   0.00188   0.00371   0.00559  -0.97425
   D11       -0.63372   0.00017   0.00231   0.00119   0.00350  -0.63022
   D12       -2.76415   0.00017   0.00178   0.00178   0.00356  -2.76059
   D13        1.44664   0.00024   0.00092   0.00308   0.00400   1.45063
         Item               Value     Threshold  Converged?
 Maximum Force            0.000973     0.000450     NO 
 RMS     Force            0.000262     0.000300     YES
 Maximum Displacement     0.007569     0.001800     NO 
 RMS     Displacement     0.003362     0.001200     NO 
 Predicted change in Energy=-8.204809D-06
 Lowest energy point so far.  Saving SCF results.
 GradGradGradGradGradGradGradGradGradGradGradGradGradGradGradGradGradGrad

 Leave Link  103 at Tue May 12 14:12:06 2026, MaxMem=  4026531840 cpu:               0.2 elap:               0.0
 (Enter /opt/apps/eb/software/Gaussian/16.C.02-AVX2/g16/l202.exe)
                          Input orientation:                          
 ---------------------------------------------------------------------
 Center     Atomic      Atomic             Coordinates (Angstroms)
 Number     Number       Type             X           Y           Z
 ---------------------------------------------------------------------
      1          6           0        2.141001    0.288220   -0.013945
      2          1           0        2.297892    0.931171   -0.878926
      3          1           0        2.985129    0.194910    0.666002
      4          6           0        0.779682    0.076494    0.494583
      5          1           0        0.648710   -0.182785    1.544860
      6          6           0       -0.382831    0.776481   -0.146069
      7          1           0       -0.204453    0.920158   -1.212559
      8          1           0       -0.563755    1.739877    0.333983
      9         17           0       -1.899936   -0.178461    0.016141
     10          8           0        1.432891   -0.916314   -0.278271
 ---------------------------------------------------------------------
                    Distance matrix (angstroms):
                    1          2          3          4          5
     1  C    0.000000
     2  H    1.089125   0.000000
     3  H    1.087927   1.844229   0.000000
     4  C    1.468543   2.218549   2.215266   0.000000
     5  H    2.208766   3.136150   2.524658   1.089706   0.000000
     6  C    2.574021   2.783394   3.512953   1.500617   2.200796
     7  H    2.708723   2.524512   3.772057   2.143507   3.089940
     8  H    3.089348   3.211569   3.884809   2.144169   2.575447
     9  Cl   4.067907   4.433304   4.942225   2.733909   2.971968
    10  O    1.422037   2.126550   2.129769   1.417623   2.115847
                    6          7          8          9         10
     6  C    0.000000
     7  H    1.090808   0.000000
     8  H    1.091474   1.786849   0.000000
     9  Cl   1.799954   2.364599   2.359326   0.000000
    10  O    2.485936   2.631809   3.378876   3.426199   0.000000
 Stoichiometry    C3H5ClO
 Framework group  C1[X(C3H5ClO)]
 Deg. of freedom    24
 Full point group                 C1      NOp   1
 RotChk:  IX=0 Diff= 1.57D-03
 Largest Abelian subgroup         C1      NOp   1
 Largest concise Abelian subgroup C1      NOp   1
                         Standard orientation:                         
 ---------------------------------------------------------------------
 Center     Atomic      Atomic             Coordinates (Angstroms)
 Number     Number       Type             X           Y           Z
 ---------------------------------------------------------------------
      1          6           0        2.147506    0.306762   -0.020942
      2          1           0        2.299820    0.950705   -0.886004
      3          1           0        2.991284    0.221818    0.660534
      4          6           0        0.787362    0.082428    0.485318
      5          1           0        0.657006   -0.177514    1.535508
      6          6           0       -0.380600    0.771029   -0.157757
      7          1           0       -0.201718    0.915814   -1.224013
      8          1           0       -0.571482    1.732927    0.321442
      9         17           0       -1.888877   -0.198150    0.002325
     10          8           0        1.451299   -0.904565   -0.285839
 ---------------------------------------------------------------------
 Rotational constants (GHZ):          13.6023066           2.0449073           1.9053732
 Leave Link  202 at Tue May 12 14:12:06 2026, MaxMem=  4026531840 cpu:               0.2 elap:               0.0
 (Enter /opt/apps/eb/software/Gaussian/16.C.02-AVX2/g16/l301.exe)
 Standard basis: 6-31+G(d,p) (6D, 7F)
 Ernie: Thresh=  0.10000D-02 Tol=  0.10000D-05 Strict=F.
 There are   124 symmetry adapted cartesian basis functions of A   symmetry.
 There are   124 symmetry adapted basis functions of A   symmetry.
   124 basis functions,   219 primitive gaussians,   124 cartesian basis functions
    24 alpha electrons       24 beta electrons
       nuclear repulsion energy       215.9121730063 Hartrees.
 IExCor= 4639 DFT=T Ex+Corr=wB97XD ExCW=0 ScaHFX=  1.000000
 ScaDFX=  1.000000  1.000000  1.000000  1.000000 ScalE2=  1.000000  1.000000
 IRadAn=      5 IRanWt=     -1 IRanGd=            0 ICorTp=0 IEmpDi=121
 HFx  wShort=  0.000000 wLong=  0.200000 cFull=  0.222036 cShort=  0.000000 cLong=  0.777964
 DFx  wShort=  0.000000 wLong=  0.200000 cFull=  0.000000 cShort=  0.000000 cLong=  1.000000
 NAtoms=   10 NActive=   10 NUniq=   10 SFac= 1.00D+00 NAtFMM=   60 NAOKFM=F Big=F
 Integral buffers will be    131072 words long.
 Raffenetti 2 integral format.
 Two-electron integral symmetry is turned on.
 R6Disp:  Grimme-D2 Dispersion energy=       -0.0033113420 Hartrees.
 Nuclear repulsion after empirical dispersion term =      215.9088616643 Hartrees.
 Leave Link  301 at Tue May 12 14:12:06 2026, MaxMem=  4026531840 cpu:               0.2 elap:               0.0
 (Enter /opt/apps/eb/software/Gaussian/16.C.02-AVX2/g16/l302.exe)
 NPDir=0 NMtPBC=     1 NCelOv=     1 NCel=       1 NClECP=     1 NCelD=      1
         NCelK=      1 NCelE2=     1 NClLst=     1 CellRange=     0.0.
 One-electron integrals computed using PRISM.
 One-electron integral symmetry used in STVInt
 NBasis=   124 RedAO= T EigKep=  7.84D-05  NBF=   124
 NBsUse=   124 1.00D-06 EigRej= -1.00D+00 NBFU=   124
 Precomputing XC quadrature grid using
 IXCGrd= 4 IRadAn=           5 IRanWt=          -1 IRanGd=           0 AccXCQ= 1.00D-12.
 Generated NRdTot=       0 NPtTot=           0 NUsed=           0 NTot=          32
 NSgBfM=   124   124   124   124   124 MxSgAt=    10 MxSgA2=    10.
 Leave Link  302 at Tue May 12 14:12:06 2026, MaxMem=  4026531840 cpu:               1.1 elap:               0.1
 (Enter /opt/apps/eb/software/Gaussian/16.C.02-AVX2/g16/l303.exe)
 DipDrv:  MaxL=1.
 Leave Link  303 at Tue May 12 14:12:06 2026, MaxMem=  4026531840 cpu:               0.1 elap:               0.0
 (Enter /opt/apps/eb/software/Gaussian/16.C.02-AVX2/g16/l401.exe)
 Initial guess from the checkpoint file:  "/users/fsw516/Gaussian_Submission/Gau-3497943.chk"
 B after Tr=    -0.000000    0.000000    0.000000
         Rot=    1.000000   -0.000530    0.000081   -0.000066 Ang=  -0.06 deg.
 Guess basis will be translated and rotated to current coordinates.
 JPrj=2 DoOrth=T DoCkMO=T.
 Leave Link  401 at Tue May 12 14:12:07 2026, MaxMem=  4026531840 cpu:               0.4 elap:               0.1
 (Enter /opt/apps/eb/software/Gaussian/16.C.02-AVX2/g16/l502.exe)
 Keep R1 ints in memory in canonical form, NReq=76270117.
 FoFCou: FMM=F IPFlag=           0 FMFlag=           0 FMFlg1=           0
         NFxFlg=           0 DoJE=F BraDBF=F KetDBF=F FulRan=T
         wScrn=  0.000000 ICntrl=       600 IOpCl=  0 I1Cent=           0 NGrid=           0
         NMat0=    1 NMatS0=   7750 NMatT0=    0 NMatD0=    1 NMtDS0=    0 NMtDT0=    0
 Symmetry not used in FoFCou.
 Two-electron integral symmetry not used.
 Closed shell SCF:
 Using DIIS extrapolation, IDIIS=  1040.
 NGot=  4026531840 LenX=  3966427239 LenY=  3966411422
 Requested convergence on RMS density matrix=1.00D-08 within 128 cycles.
 Requested convergence on MAX density matrix=1.00D-06.
 Requested convergence on             energy=1.00D-06.
 No special actions if energy rises.

 Cycle   1  Pass 1  IDiag  1:
 E= -652.638608099324    
 DIIS: error= 1.21D-04 at cycle   1 NSaved=   1.
 NSaved= 1 IEnMin= 1 EnMin= -652.638608099324     IErMin= 1 ErrMin= 1.21D-04
 ErrMax= 1.21D-04  0.00D+00 EMaxC= 1.00D-01 BMatC= 7.37D-06 BMatP= 7.37D-06
 IDIUse=3 WtCom= 9.99D-01 WtEn= 1.21D-03
 Coeff-Com:  0.100D+01
 Coeff-En:   0.100D+01
 Coeff:      0.100D+01
 Gap=     0.864 Goal=   None    Shift=    0.000
 RMSDP=9.20D-05 MaxDP=4.08D-03              OVMax= 7.95D-04

 Cycle   2  Pass 1  IDiag  1:
 E= -652.638620769505     Delta-E=       -0.000012670181 Rises=F Damp=F
 DIIS: error= 2.82D-05 at cycle   2 NSaved=   2.
 NSaved= 2 IEnMin= 2 EnMin= -652.638620769505     IErMin= 2 ErrMin= 2.82D-05
 ErrMax= 2.82D-05  0.00D+00 EMaxC= 1.00D-01 BMatC= 3.37D-07 BMatP= 7.37D-06
 IDIUse=1 WtCom= 1.00D+00 WtEn= 0.00D+00
 Coeff-Com: -0.164D+00 0.116D+01
 Coeff:     -0.164D+00 0.116D+01
 Gap=     0.432 Goal=   None    Shift=    0.000
 RMSDP=1.95D-05 MaxDP=6.29D-04 DE=-1.27D-05 OVMax= 3.56D-04

 Cycle   3  Pass 1  IDiag  1:
 E= -652.638621577165     Delta-E=       -0.000000807661 Rises=F Damp=F
 DIIS: error= 1.59D-05 at cycle   3 NSaved=   3.
 NSaved= 3 IEnMin= 3 EnMin= -652.638621577165     IErMin= 3 ErrMin= 1.59D-05
 ErrMax= 1.59D-05  0.00D+00 EMaxC= 1.00D-01 BMatC= 7.71D-08 BMatP= 3.37D-07
 IDIUse=1 WtCom= 1.00D+00 WtEn= 0.00D+00
 Coeff-Com: -0.853D-01 0.410D+00 0.676D+00
 Coeff:     -0.853D-01 0.410D+00 0.676D+00
 Gap=     0.432 Goal=   None    Shift=    0.000
 RMSDP=4.40D-06 MaxDP=1.61D-04 DE=-8.08D-07 OVMax= 8.06D-05

 Cycle   4  Pass 1  IDiag  1:
 E= -652.638621655941     Delta-E=       -0.000000078776 Rises=F Damp=F
 DIIS: error= 6.05D-06 at cycle   4 NSaved=   4.
 NSaved= 4 IEnMin= 4 EnMin= -652.638621655941     IErMin= 4 ErrMin= 6.05D-06
 ErrMax= 6.05D-06  0.00D+00 EMaxC= 1.00D-01 BMatC= 7.56D-09 BMatP= 7.71D-08
 IDIUse=1 WtCom= 1.00D+00 WtEn= 0.00D+00
 Coeff-Com:  0.222D-03-0.512D-01 0.186D+00 0.865D+00
 Coeff:      0.222D-03-0.512D-01 0.186D+00 0.865D+00
 Gap=     0.432 Goal=   None    Shift=    0.000
 RMSDP=1.98D-06 MaxDP=3.39D-05 DE=-7.88D-08 OVMax= 3.89D-05

 Cycle   5  Pass 1  IDiag  1:
 E= -652.638621665901     Delta-E=       -0.000000009960 Rises=F Damp=F
 DIIS: error= 2.26D-06 at cycle   5 NSaved=   5.
 NSaved= 5 IEnMin= 5 EnMin= -652.638621665901     IErMin= 5 ErrMin= 2.26D-06
 ErrMax= 2.26D-06  0.00D+00 EMaxC= 1.00D-01 BMatC= 1.30D-09 BMatP= 7.56D-09
 IDIUse=1 WtCom= 1.00D+00 WtEn= 0.00D+00
 Coeff-Com:  0.729D-02-0.566D-01 0.184D-01 0.367D+00 0.664D+00
 Coeff:      0.729D-02-0.566D-01 0.184D-01 0.367D+00 0.664D+00
 Gap=     0.432 Goal=   None    Shift=    0.000
 RMSDP=8.15D-07 MaxDP=3.23D-05 DE=-9.96D-09 OVMax= 1.13D-05

 Cycle   6  Pass 1  IDiag  1:
 E= -652.638621667135     Delta-E=       -0.000000001234 Rises=F Damp=F
 DIIS: error= 7.78D-07 at cycle   6 NSaved=   6.
 NSaved= 6 IEnMin= 6 EnMin= -652.638621667135     IErMin= 6 ErrMin= 7.78D-07
 ErrMax= 7.78D-07  0.00D+00 EMaxC= 1.00D-01 BMatC= 1.72D-10 BMatP= 1.30D-09
 IDIUse=1 WtCom= 1.00D+00 WtEn= 0.00D+00
 Coeff-Com:  0.339D-02-0.204D-01-0.150D-01 0.600D-01 0.296D+00 0.676D+00
 Coeff:      0.339D-02-0.204D-01-0.150D-01 0.600D-01 0.296D+00 0.676D+00
 Gap=     0.432 Goal=   None    Shift=    0.000
 RMSDP=2.77D-07 MaxDP=7.11D-06 DE=-1.23D-09 OVMax= 3.63D-06

 Cycle   7  Pass 1  IDiag  1:
 E= -652.638621667315     Delta-E=       -0.000000000180 Rises=F Damp=F
 DIIS: error= 1.73D-07 at cycle   7 NSaved=   7.
 NSaved= 7 IEnMin= 7 EnMin= -652.638621667315     IErMin= 7 ErrMin= 1.73D-07
 ErrMax= 1.73D-07  0.00D+00 EMaxC= 1.00D-01 BMatC= 7.04D-12 BMatP= 1.72D-10
 IDIUse=1 WtCom= 1.00D+00 WtEn= 0.00D+00
 Coeff-Com: -0.303D-03 0.331D-02-0.435D-02-0.330D-01-0.307D-01 0.993D-01
 Coeff-Com:  0.966D+00
 Coeff:     -0.303D-03 0.331D-02-0.435D-02-0.330D-01-0.307D-01 0.993D-01
 Coeff:      0.966D+00
 Gap=     0.432 Goal=   None    Shift=    0.000
 RMSDP=1.38D-07 MaxDP=2.89D-06 DE=-1.80D-10 OVMax= 2.07D-06

 Cycle   8  Pass 1  IDiag  1:
 E= -652.638621667331     Delta-E=       -0.000000000016 Rises=F Damp=F
 DIIS: error= 6.50D-08 at cycle   8 NSaved=   8.
 NSaved= 8 IEnMin= 8 EnMin= -652.638621667331     IErMin= 8 ErrMin= 6.50D-08
 ErrMax= 6.50D-08  0.00D+00 EMaxC= 1.00D-01 BMatC= 1.18D-12 BMatP= 7.04D-12
 IDIUse=1 WtCom= 1.00D+00 WtEn= 0.00D+00
 Coeff-Com: -0.394D-03 0.292D-02-0.200D-03-0.168D-01-0.357D-01-0.261D-01
 Coeff-Com:  0.343D+00 0.733D+00
 Coeff:     -0.394D-03 0.292D-02-0.200D-03-0.168D-01-0.357D-01-0.261D-01
 Coeff:      0.343D+00 0.733D+00
 Gap=     0.432 Goal=   None    Shift=    0.000
 RMSDP=2.94D-08 MaxDP=5.45D-07 DE=-1.61D-11 OVMax= 6.04D-07

 Cycle   9  Pass 1  IDiag  1:
 E= -652.638621667332     Delta-E=       -0.000000000000 Rises=F Damp=F
 DIIS: error= 1.74D-08 at cycle   9 NSaved=   9.
 NSaved= 9 IEnMin= 9 EnMin= -652.638621667332     IErMin= 9 ErrMin= 1.74D-08
 ErrMax= 1.74D-08  0.00D+00 EMaxC= 1.00D-01 BMatC= 7.61D-14 BMatP= 1.18D-12
 IDIUse=1 WtCom= 1.00D+00 WtEn= 0.00D+00
 Coeff-Com: -0.341D-04 0.139D-03 0.441D-03 0.793D-03-0.257D-02-0.160D-01
 Coeff-Com: -0.483D-01 0.140D+00 0.926D+00
 Coeff:     -0.341D-04 0.139D-03 0.441D-03 0.793D-03-0.257D-02-0.160D-01
 Coeff:     -0.483D-01 0.140D+00 0.926D+00
 Gap=     0.432 Goal=   None    Shift=    0.000
 RMSDP=9.77D-09 MaxDP=1.86D-07 DE=-4.55D-13 OVMax= 2.50D-07

 SCF Done:  E(RwB97XD) =  -652.638621667     A.U. after    9 cycles
            NFock=  9  Conv=0.98D-08     -V/T= 2.0047
 KE= 6.495590742222D+02 PE=-1.973975835146D+03 EE= 4.558692775920D+02
 Leave Link  502 at Tue May 12 14:12:08 2026, MaxMem=  4026531840 cpu:              16.6 elap:               1.7
 (Enter /opt/apps/eb/software/Gaussian/16.C.02-AVX2/g16/l701.exe)
 ... and contract with generalized density number  0.
 Compute integral first derivatives.
 R6Disp: Adding Grimme-D2 dispersion energy 1st derivatives to the gradient.
 Leave Link  701 at Tue May 12 14:12:09 2026, MaxMem=  4026531840 cpu:               2.8 elap:               0.4
 (Enter /opt/apps/eb/software/Gaussian/16.C.02-AVX2/g16/l702.exe)
 L702 exits ... SP integral derivatives will be done elsewhere.
 Leave Link  702 at Tue May 12 14:12:09 2026, MaxMem=  4026531840 cpu:               0.0 elap:               0.0
 (Enter /opt/apps/eb/software/Gaussian/16.C.02-AVX2/g16/l703.exe)
 Integral derivatives from FoFJK, PRISM(SPDF).
 Compute integral first derivatives, UseDBF=F ICtDFT=           0.
 Calling FoFJK, ICntrl=      2127 FMM=F ISym2X=0 I1Cent= 0 IOpClX= 0 NMat=1 NMatS=1 NMatT=0.
 FoFJK:  IHMeth= 1 ICntrl=    2127 DoSepK=T KAlg= 0 I1Cent=           0 FoldK=F
 IRaf=         1 NMat=       1 IRICut=       1 DoRegI=T DoRafI=F ISym2E= 0 IDoP0=0 IntGTp=1.
 FoFCou: FMM=F IPFlag=           0 FMFlag=      100000 FMFlg1=         800
         NFxFlg=           0 DoJE=F BraDBF=F KetDBF=F FulRan=T
         wScrn=  0.000000 ICntrl=      2527 IOpCl=  0 I1Cent=           0 NGrid=           0
         NMat0=    1 NMatS0=      1 NMatT0=    0 NMatD0=    1 NMtDS0=    0 NMtDT0=    0
 Symmetry not used in FoFCou.
 Leave Link  703 at Tue May 12 14:12:09 2026, MaxMem=  4026531840 cpu:               7.8 elap:               0.8
 (Enter /opt/apps/eb/software/Gaussian/16.C.02-AVX2/g16/l716.exe)
 Dipole        = 7.45098104D-01 1.14452077D+00 2.61530014D-01
 ***** Axes restored to original set *****
 -------------------------------------------------------------------
 Center     Atomic                   Forces (Hartrees/Bohr)
 Number     Number              X              Y              Z
 -------------------------------------------------------------------
      1        6          -0.000099240    0.000143029   -0.000001801
      2        1           0.000153125    0.000040982    0.000077874
      3        1           0.000022141    0.000114785   -0.000086019
      4        6          -0.000196355    0.000034211    0.000323771
      5        1           0.000028162   -0.000029491   -0.000081060
      6        6           0.000220490   -0.000114271   -0.000055908
      7        1           0.000006794    0.000003298    0.000019696
      8        1           0.000002012    0.000022970   -0.000071333
      9       17          -0.000020038    0.000041119    0.000049960
     10        8          -0.000117091   -0.000256632   -0.000175179
 -------------------------------------------------------------------
 Cartesian Forces:  Max     0.000323771 RMS     0.000118471
 Leave Link  716 at Tue May 12 14:12:09 2026, MaxMem=  4026531840 cpu:               0.1 elap:               0.0
 (Enter /opt/apps/eb/software/Gaussian/16.C.02-AVX2/g16/l103.exe)

 GradGradGradGradGradGradGradGradGradGradGradGradGradGradGradGradGradGrad
 Berny optimization.
 Using GEDIIS/GDIIS optimizer.
 FormGI is forming the generalized inverse of G from B-inverse, IUseBI=4.
 Internal  Forces:  Max     0.000281099 RMS     0.000087033
 Search for a local minimum.
 Step number   5 out of a maximum of   49
 All quantities printed in internal units (Hartrees-Bohrs-Radians)
 RMS Force = .87033D-04 SwitMx=.10000D-02 MixMth= 2
 Mixed Optimization -- En-DIIS/RFO-DIIS
 Swapping is turned off.
 Update second derivatives using D2CorX and points    1    2    3    4    5
 DE= -9.51D-06 DEPred=-8.20D-06 R= 1.16D+00
 TightC=F SS=  1.41D+00  RLast= 1.65D-02 DXNew= 8.4853D-01 4.9508D-02
 Trust test= 1.16D+00 RLast= 1.65D-02 DXMaxT set to 5.05D-01
 ITU=  1  1  1  1  0
     Eigenvalues ---    0.01331   0.02940   0.03233   0.04555   0.06284
     Eigenvalues ---    0.06595   0.11425   0.14563   0.15529   0.16003
     Eigenvalues ---    0.16032   0.16278   0.21635   0.23054   0.25678
     Eigenvalues ---    0.27955   0.30164   0.30690   0.31951   0.33321
     Eigenvalues ---    0.36527   0.39249   0.41463   0.44095
 En-DIIS/RFO-DIIS/Sim-DIIS IScMMF=       -3 using points:     5    4    3
 RFO step:  Lambda=-2.45947872D-06.
 NNeg= 0 NGDIIS= 3 SimSw=  2.50D-01 Rises=F DC= -9.51D-06 SmlDif=  1.00D-05
 NRisDI= 0 DoIntr=F SqrtH=F CThrHd= 10.0 CDAdj=  3.0
 RMS Error=  0.1519289114D-02 NUsed= 3 OKEnD=F EnDIS=F
 InvSVX:  RCond= 1.01D-05 Info=           0 Equed=N FErr=  7.97D-15 BErr=  3.96D-17
 DidBck=F Rises=F RFO-DIIS coefs:    1.36345   -0.33367   -0.02978
 Iteration  1 RMS(Cart)=  0.00174810 RMS(Int)=  0.00000226
 Iteration  2 RMS(Cart)=  0.00000174 RMS(Int)=  0.00000158
 Iteration  3 RMS(Cart)=  0.00000000 RMS(Int)=  0.00000158
 ITry= 1 IFail=0 DXMaxC= 4.17D-03 DCOld= 1.00D+10 DXMaxT= 5.05D-01 DXLimC= 3.00D+00 Rises=F
 Variable       Old X    -DE/DX   Delta X   Delta X   Delta X     New X
                                 (Linear)    (Quad)   (Total)
    R1        2.05815  -0.00001  -0.00019   0.00005  -0.00014   2.05801
    R2        2.05588  -0.00005  -0.00028   0.00003  -0.00025   2.05564
    R3        2.77514  -0.00004  -0.00004  -0.00013  -0.00017   2.77497
    R4        2.68726   0.00028  -0.00071   0.00120   0.00049   2.68775
    R5        2.05925  -0.00007  -0.00001  -0.00022  -0.00024   2.05901
    R6        2.83575  -0.00016   0.00088  -0.00102  -0.00015   2.83561
    R7        2.67892   0.00010   0.00138  -0.00054   0.00084   2.67976
    R8        2.06133  -0.00002   0.00021  -0.00016   0.00005   2.06138
    R9        2.06259  -0.00001   0.00020  -0.00012   0.00008   2.06267
   R10        3.40142   0.00000  -0.00032   0.00020  -0.00012   3.40130
    A1        2.02109  -0.00017  -0.00060  -0.00079  -0.00139   2.01970
    A2        2.08709   0.00013  -0.00056   0.00097   0.00041   2.08750
    A3        2.00882   0.00004   0.00035   0.00051   0.00085   2.00967
    A4        2.08342   0.00003   0.00092  -0.00060   0.00032   2.08374
    A5        2.01517   0.00007  -0.00014   0.00091   0.00077   2.01594
    A6        2.07085   0.00005   0.00158  -0.00087   0.00071   2.07155
    A7        2.09791  -0.00021  -0.00101  -0.00033  -0.00135   2.09656
    A8        2.01458   0.00014   0.00031   0.00060   0.00091   2.01549
    A9        1.99786   0.00002   0.00059  -0.00022   0.00037   1.99823
   A10        2.03856  -0.00016  -0.00161   0.00026  -0.00136   2.03720
   A11        1.93068  -0.00002  -0.00110   0.00062  -0.00049   1.93019
   A12        1.93090   0.00005   0.00092  -0.00034   0.00057   1.93147
   A13        1.94658   0.00002  -0.00053   0.00049  -0.00004   1.94654
   A14        1.91863  -0.00004   0.00013  -0.00046  -0.00033   1.91830
   A15        1.87111   0.00003   0.00088  -0.00019   0.00069   1.87180
   A16        1.86391  -0.00005  -0.00026  -0.00014  -0.00040   1.86351
    D1       -2.68962   0.00003   0.00075   0.00039   0.00114  -2.68848
    D2       -0.03424   0.00004   0.00282  -0.00079   0.00203  -0.03221
    D3       -0.01317  -0.00003   0.00004  -0.00082  -0.00078  -0.01395
    D4        2.64222  -0.00002   0.00210  -0.00200   0.00010   2.64232
    D5        0.55779   0.00002  -0.00015   0.00196   0.00181   0.55959
    D6       -1.57258   0.00004  -0.00019   0.00235   0.00216  -1.57042
    D7        2.63864   0.00005  -0.00013   0.00244   0.00232   2.64096
    D8       -3.05510   0.00000   0.00221   0.00043   0.00264  -3.05247
    D9        1.09771   0.00003   0.00217   0.00082   0.00299   1.10070
   D10       -0.97425   0.00004   0.00224   0.00091   0.00315  -0.97110
   D11       -0.63022   0.00002   0.00153   0.00118   0.00270  -0.62752
   D12       -2.76059   0.00004   0.00149   0.00158   0.00306  -2.75753
   D13        1.45063   0.00005   0.00155   0.00167   0.00322   1.45385
         Item               Value     Threshold  Converged?
 Maximum Force            0.000281     0.000450     YES
 RMS     Force            0.000087     0.000300     YES
 Maximum Displacement     0.004166     0.001800     NO 
 RMS     Displacement     0.001748     0.001200     NO 
 Predicted change in Energy=-1.227450D-06
 Lowest energy point so far.  Saving SCF results.
 GradGradGradGradGradGradGradGradGradGradGradGradGradGradGradGradGradGrad

 Leave Link  103 at Tue May 12 14:12:10 2026, MaxMem=  4026531840 cpu:               0.2 elap:               0.0
 (Enter /opt/apps/eb/software/Gaussian/16.C.02-AVX2/g16/l202.exe)
                          Input orientation:                          
 ---------------------------------------------------------------------
 Center     Atomic      Atomic             Coordinates (Angstroms)
 Number     Number       Type             X           Y           Z
 ---------------------------------------------------------------------
      1          6           0        2.140429    0.288524   -0.013749
      2          1           0        2.297262    0.933220   -0.877348
      3          1           0        2.984952    0.195565    0.665546
      4          6           0        0.779487    0.075773    0.495100
      5          1           0        0.648310   -0.184713    1.544921
      6          6           0       -0.382363    0.776033   -0.146272
      7          1           0       -0.203494    0.917953   -1.212942
      8          1           0       -0.562562    1.740512    0.331973
      9         17           0       -1.900450   -0.176860    0.018090
     10          8           0        1.432759   -0.916255   -0.279519
 ---------------------------------------------------------------------
                    Distance matrix (angstroms):
                    1          2          3          4          5
     1  C    0.000000
     2  H    1.089051   0.000000
     3  H    1.087796   1.843251   0.000000
     4  C    1.468453   2.218663   2.215282   0.000000
     5  H    2.209033   3.136272   2.525432   1.089580   0.000000
     6  C    2.572880   2.782008   3.512094   1.500540   2.201240
     7  H    2.707068   2.523219   3.770510   2.143111   3.089863
     8  H    3.087710   3.208234   3.883682   2.144542   2.577585
     9  Cl   4.067715   4.433381   4.942170   2.733757   2.971104
    10  O    1.422295   2.127281   2.130398   1.418069   2.116388
                    6          7          8          9         10
     6  C    0.000000
     7  H    1.090834   0.000000
     8  H    1.091518   1.786699   0.000000
     9  Cl   1.799891   2.365103   2.358979   0.000000
    10  O    2.485208   2.629243   3.378408   3.427179   0.000000
 Stoichiometry    C3H5ClO
 Framework group  C1[X(C3H5ClO)]
 Deg. of freedom    24
 Full point group                 C1      NOp   1
 RotChk:  IX=0 Diff= 1.12D-03
 Largest Abelian subgroup         C1      NOp   1
 Largest concise Abelian subgroup C1      NOp   1
                         Standard orientation:                         
 ---------------------------------------------------------------------
 Center     Atomic      Atomic             Coordinates (Angstroms)
 Number     Number       Type             X           Y           Z
 ---------------------------------------------------------------------
      1          6           0        2.147064    0.307362   -0.019871
      2          1           0        2.299590    0.953447   -0.883202
      3          1           0        2.990859    0.222791    0.661421
      4          6           0        0.787084    0.081334    0.485815
      5          1           0        0.656003   -0.180281    1.535368
      6          6           0       -0.380073    0.770067   -0.158398
      7          1           0       -0.200099    0.913588   -1.224667
      8          1           0       -0.570853    1.732797    0.319267
      9         17           0       -1.889117   -0.197658    0.002552
     10          8           0        1.451879   -0.904342   -0.287107
 ---------------------------------------------------------------------
 Rotational constants (GHZ):          13.6064885           2.0446286           1.9054171
 Leave Link  202 at Tue May 12 14:12:10 2026, MaxMem=  4026531840 cpu:               0.1 elap:               0.0
 (Enter /opt/apps/eb/software/Gaussian/16.C.02-AVX2/g16/l301.exe)
 Standard basis: 6-31+G(d,p) (6D, 7F)
 Ernie: Thresh=  0.10000D-02 Tol=  0.10000D-05 Strict=F.
 There are   124 symmetry adapted cartesian basis functions of A   symmetry.
 There are   124 symmetry adapted basis functions of A   symmetry.
   124 basis functions,   219 primitive gaussians,   124 cartesian basis functions
    24 alpha electrons       24 beta electrons
       nuclear repulsion energy       215.9109024955 Hartrees.
 IExCor= 4639 DFT=T Ex+Corr=wB97XD ExCW=0 ScaHFX=  1.000000
 ScaDFX=  1.000000  1.000000  1.000000  1.000000 ScalE2=  1.000000  1.000000
 IRadAn=      5 IRanWt=     -1 IRanGd=            0 ICorTp=0 IEmpDi=121
 HFx  wShort=  0.000000 wLong=  0.200000 cFull=  0.222036 cShort=  0.000000 cLong=  0.777964
 DFx  wShort=  0.000000 wLong=  0.200000 cFull=  0.000000 cShort=  0.000000 cLong=  1.000000
 NAtoms=   10 NActive=   10 NUniq=   10 SFac= 1.00D+00 NAtFMM=   60 NAOKFM=F Big=F
 Integral buffers will be    131072 words long.
 Raffenetti 2 integral format.
 Two-electron integral symmetry is turned on.
 R6Disp:  Grimme-D2 Dispersion energy=       -0.0033112384 Hartrees.
 Nuclear repulsion after empirical dispersion term =      215.9075912571 Hartrees.
 Leave Link  301 at Tue May 12 14:12:10 2026, MaxMem=  4026531840 cpu:               0.1 elap:               0.0
 (Enter /opt/apps/eb/software/Gaussian/16.C.02-AVX2/g16/l302.exe)
 NPDir=0 NMtPBC=     1 NCelOv=     1 NCel=       1 NClECP=     1 NCelD=      1
         NCelK=      1 NCelE2=     1 NClLst=     1 CellRange=     0.0.
 One-electron integrals computed using PRISM.
 One-electron integral symmetry used in STVInt
 NBasis=   124 RedAO= T EigKep=  7.82D-05  NBF=   124
 NBsUse=   124 1.00D-06 EigRej= -1.00D+00 NBFU=   124
 Precomputing XC quadrature grid using
 IXCGrd= 4 IRadAn=           5 IRanWt=          -1 IRanGd=           0 AccXCQ= 1.00D-12.
 Generated NRdTot=       0 NPtTot=           0 NUsed=           0 NTot=          32
 NSgBfM=   124   124   124   124   124 MxSgAt=    10 MxSgA2=    10.
 Leave Link  302 at Tue May 12 14:12:10 2026, MaxMem=  4026531840 cpu:               1.4 elap:               0.1
 (Enter /opt/apps/eb/software/Gaussian/16.C.02-AVX2/g16/l303.exe)
 DipDrv:  MaxL=1.
 Leave Link  303 at Tue May 12 14:12:10 2026, MaxMem=  4026531840 cpu:               0.2 elap:               0.0
 (Enter /opt/apps/eb/software/Gaussian/16.C.02-AVX2/g16/l401.exe)
 Initial guess from the checkpoint file:  "/users/fsw516/Gaussian_Submission/Gau-3497943.chk"
 B after Tr=    -0.000000   -0.000000    0.000000
         Rot=    1.000000   -0.000262    0.000045    0.000004 Ang=  -0.03 deg.
 Guess basis will be translated and rotated to current coordinates.
 JPrj=2 DoOrth=T DoCkMO=T.
 Leave Link  401 at Tue May 12 14:12:10 2026, MaxMem=  4026531840 cpu:               0.1 elap:               0.0
 (Enter /opt/apps/eb/software/Gaussian/16.C.02-AVX2/g16/l502.exe)
 Keep R1 ints in memory in canonical form, NReq=76270117.
 FoFCou: FMM=F IPFlag=           0 FMFlag=           0 FMFlg1=           0
         NFxFlg=           0 DoJE=F BraDBF=F KetDBF=F FulRan=T
         wScrn=  0.000000 ICntrl=       600 IOpCl=  0 I1Cent=           0 NGrid=           0
         NMat0=    1 NMatS0=   7750 NMatT0=    0 NMatD0=    1 NMtDS0=    0 NMtDT0=    0
 Symmetry not used in FoFCou.
 Two-electron integral symmetry not used.
 Closed shell SCF:
 Using DIIS extrapolation, IDIIS=  1040.
 NGot=  4026531840 LenX=  3966427239 LenY=  3966411422
 Requested convergence on RMS density matrix=1.00D-08 within 128 cycles.
 Requested convergence on MAX density matrix=1.00D-06.
 Requested convergence on             energy=1.00D-06.
 No special actions if energy rises.

 Cycle   1  Pass 1  IDiag  1:
 E= -652.638619782355    
 DIIS: error= 7.29D-05 at cycle   1 NSaved=   1.
 NSaved= 1 IEnMin= 1 EnMin= -652.638619782355     IErMin= 1 ErrMin= 7.29D-05
 ErrMax= 7.29D-05  0.00D+00 EMaxC= 1.00D-01 BMatC= 1.81D-06 BMatP= 1.81D-06
 IDIUse=1 WtCom= 1.00D+00 WtEn= 0.00D+00
 Coeff-Com:  0.100D+01
 Coeff:      0.100D+01
 Gap=     0.864 Goal=   None    Shift=    0.000
 RMSDP=2.59D-05 MaxDP=5.45D-04              OVMax= 4.59D-04

 Cycle   2  Pass 1  IDiag  1:
 E= -652.638622928889     Delta-E=       -0.000003146534 Rises=F Damp=F
 DIIS: error= 1.68D-05 at cycle   2 NSaved=   2.
 NSaved= 2 IEnMin= 2 EnMin= -652.638622928889     IErMin= 2 ErrMin= 1.68D-05
 ErrMax= 1.68D-05  0.00D+00 EMaxC= 1.00D-01 BMatC= 8.08D-08 BMatP= 1.81D-06
 IDIUse=1 WtCom= 1.00D+00 WtEn= 0.00D+00
 Coeff-Com: -0.190D+00 0.119D+01
 Coeff:     -0.190D+00 0.119D+01
 Gap=     0.432 Goal=   None    Shift=    0.000
 RMSDP=7.38D-06 MaxDP=1.40D-04 DE=-3.15D-06 OVMax= 1.41D-04

 Cycle   3  Pass 1  IDiag  1:
 E= -652.638623128360     Delta-E=       -0.000000199471 Rises=F Damp=F
 DIIS: error= 8.36D-06 at cycle   3 NSaved=   3.
 NSaved= 3 IEnMin= 3 EnMin= -652.638623128360     IErMin= 3 ErrMin= 8.36D-06
 ErrMax= 8.36D-06  0.00D+00 EMaxC= 1.00D-01 BMatC= 1.84D-08 BMatP= 8.08D-08
 IDIUse=1 WtCom= 1.00D+00 WtEn= 0.00D+00
 Coeff-Com: -0.903D-01 0.461D+00 0.629D+00
 Coeff:     -0.903D-01 0.461D+00 0.629D+00
 Gap=     0.432 Goal=   None    Shift=    0.000
 RMSDP=1.83D-06 MaxDP=6.72D-05 DE=-1.99D-07 OVMax= 3.60D-05

 Cycle   4  Pass 1  IDiag  1:
 E= -652.638623142716     Delta-E=       -0.000000014356 Rises=F Damp=F
 DIIS: error= 3.81D-06 at cycle   4 NSaved=   4.
 NSaved= 4 IEnMin= 4 EnMin= -652.638623142716     IErMin= 4 ErrMin= 3.81D-06
 ErrMax= 3.81D-06  0.00D+00 EMaxC= 1.00D-01 BMatC= 3.74D-09 BMatP= 1.84D-08
 IDIUse=1 WtCom= 1.00D+00 WtEn= 0.00D+00
 Coeff-Com:  0.602D-02-0.862D-01 0.286D+00 0.794D+00
 Coeff:      0.602D-02-0.862D-01 0.286D+00 0.794D+00
 Gap=     0.432 Goal=   None    Shift=    0.000
 RMSDP=1.10D-06 MaxDP=3.60D-05 DE=-1.44D-08 OVMax= 1.84D-05

 Cycle   5  Pass 1  IDiag  1:
 E= -652.638623146555     Delta-E=       -0.000000003839 Rises=F Damp=F
 DIIS: error= 6.68D-07 at cycle   5 NSaved=   5.
 NSaved= 5 IEnMin= 5 EnMin= -652.638623146555     IErMin= 5 ErrMin= 6.68D-07
 ErrMax= 6.68D-07  0.00D+00 EMaxC= 1.00D-01 BMatC= 1.04D-10 BMatP= 3.74D-09
 IDIUse=1 WtCom= 1.00D+00 WtEn= 0.00D+00
 Coeff-Com:  0.723D-02-0.513D-01 0.293D-01 0.192D+00 0.822D+00
 Coeff:      0.723D-02-0.513D-01 0.293D-01 0.192D+00 0.822D+00
 Gap=     0.432 Goal=   None    Shift=    0.000
 RMSDP=2.73D-07 MaxDP=4.14D-06 DE=-3.84D-09 OVMax= 6.11D-06

 Cycle   6  Pass 1  IDiag  1:
 E= -652.638623146724     Delta-E=       -0.000000000169 Rises=F Damp=F
 DIIS: error= 2.24D-07 at cycle   6 NSaved=   6.
 NSaved= 6 IEnMin= 6 EnMin= -652.638623146724     IErMin= 6 ErrMin= 2.24D-07
 ErrMax= 2.24D-07  0.00D+00 EMaxC= 1.00D-01 BMatC= 1.45D-11 BMatP= 1.04D-10
 IDIUse=1 WtCom= 1.00D+00 WtEn= 0.00D+00
 Coeff-Com:  0.164D-02-0.809D-02-0.147D-01-0.775D-02 0.261D+00 0.768D+00
 Coeff:      0.164D-02-0.809D-02-0.147D-01-0.775D-02 0.261D+00 0.768D+00
 Gap=     0.432 Goal=   None    Shift=    0.000
 RMSDP=1.08D-07 MaxDP=2.11D-06 DE=-1.69D-10 OVMax= 2.35D-06

 Cycle   7  Pass 1  IDiag  1:
 E= -652.638623146744     Delta-E=       -0.000000000020 Rises=F Damp=F
 DIIS: error= 4.88D-08 at cycle   7 NSaved=   7.
 NSaved= 7 IEnMin= 7 EnMin= -652.638623146744     IErMin= 7 ErrMin= 4.88D-08
 ErrMax= 4.88D-08  0.00D+00 EMaxC= 1.00D-01 BMatC= 1.37D-12 BMatP= 1.45D-11
 IDIUse=1 WtCom= 1.00D+00 WtEn= 0.00D+00
 Coeff-Com: -0.700D-03 0.581D-02-0.785D-02-0.314D-01-0.686D-01 0.168D+00
 Coeff-Com:  0.935D+00
 Coeff:     -0.700D-03 0.581D-02-0.785D-02-0.314D-01-0.686D-01 0.168D+00
 Coeff:      0.935D+00
 Gap=     0.432 Goal=   None    Shift=    0.000
 RMSDP=5.95D-08 MaxDP=1.74D-06 DE=-2.00D-11 OVMax= 1.30D-06

 Cycle   8  Pass 1  IDiag  1:
 E= -652.638623146750     Delta-E=       -0.000000000006 Rises=F Damp=F
 DIIS: error= 2.24D-08 at cycle   8 NSaved=   8.
 NSaved= 8 IEnMin= 8 EnMin= -652.638623146750     IErMin= 8 ErrMin= 2.24D-08
 ErrMax= 2.24D-08  0.00D+00 EMaxC= 1.00D-01 BMatC= 7.85D-14 BMatP= 1.37D-12
 IDIUse=1 WtCom= 1.00D+00 WtEn= 0.00D+00
 Coeff-Com: -0.221D-03 0.153D-02-0.450D-03-0.486D-02-0.281D-01-0.161D-01
 Coeff-Com:  0.165D+00 0.883D+00
 Coeff:     -0.221D-03 0.153D-02-0.450D-03-0.486D-02-0.281D-01-0.161D-01
 Coeff:      0.165D+00 0.883D+00
 Gap=     0.432 Goal=   None    Shift=    0.000
 RMSDP=1.11D-08 MaxDP=2.42D-07 DE=-5.80D-12 OVMax= 3.00D-07

 Cycle   9  Pass 1  IDiag  1:
 E= -652.638623146745     Delta-E=        0.000000000005 Rises=F Damp=F
 DIIS: error= 7.15D-09 at cycle   9 NSaved=   9.
 NSaved= 9 IEnMin= 8 EnMin= -652.638623146750     IErMin= 9 ErrMin= 7.15D-09
 ErrMax= 7.15D-09  0.00D+00 EMaxC= 1.00D-01 BMatC= 1.61D-14 BMatP= 7.85D-14
 IDIUse=1 WtCom= 1.00D+00 WtEn= 0.00D+00
 Coeff-Com:  0.143D-04-0.213D-03 0.816D-03 0.220D-02-0.373D-03-0.261D-01
 Coeff-Com: -0.637D-01 0.288D+00 0.799D+00
 Coeff:      0.143D-04-0.213D-03 0.816D-03 0.220D-02-0.373D-03-0.261D-01
 Coeff:     -0.637D-01 0.288D+00 0.799D+00
 Gap=     0.432 Goal=   None    Shift=    0.000
 RMSDP=4.86D-09 MaxDP=1.37D-07 DE= 4.66D-12 OVMax= 1.05D-07

 SCF Done:  E(RwB97XD) =  -652.638623147     A.U. after    9 cycles
            NFock=  9  Conv=0.49D-08     -V/T= 2.0047
 KE= 6.495588180316D+02 PE=-1.973973352005D+03 EE= 4.558683195700D+02
 Leave Link  502 at Tue May 12 14:12:12 2026, MaxMem=  4026531840 cpu:              17.0 elap:               1.8
 (Enter /opt/apps/eb/software/Gaussian/16.C.02-AVX2/g16/l701.exe)
 ... and contract with generalized density number  0.
 Compute integral first derivatives.
 R6Disp: Adding Grimme-D2 dispersion energy 1st derivatives to the gradient.
 Leave Link  701 at Tue May 12 14:12:12 2026, MaxMem=  4026531840 cpu:               2.2 elap:               0.3
 (Enter /opt/apps/eb/software/Gaussian/16.C.02-AVX2/g16/l702.exe)
 L702 exits ... SP integral derivatives will be done elsewhere.
 Leave Link  702 at Tue May 12 14:12:12 2026, MaxMem=  4026531840 cpu:               0.1 elap:               0.0
 (Enter /opt/apps/eb/software/Gaussian/16.C.02-AVX2/g16/l703.exe)
 Integral derivatives from FoFJK, PRISM(SPDF).
 Compute integral first derivatives, UseDBF=F ICtDFT=           0.
 Calling FoFJK, ICntrl=      2127 FMM=F ISym2X=0 I1Cent= 0 IOpClX= 0 NMat=1 NMatS=1 NMatT=0.
 FoFJK:  IHMeth= 1 ICntrl=    2127 DoSepK=T KAlg= 0 I1Cent=           0 FoldK=F
 IRaf=         1 NMat=       1 IRICut=       1 DoRegI=T DoRafI=F ISym2E= 0 IDoP0=0 IntGTp=1.
 FoFCou: FMM=F IPFlag=           0 FMFlag=      100000 FMFlg1=         800
         NFxFlg=           0 DoJE=F BraDBF=F KetDBF=F FulRan=T
         wScrn=  0.000000 ICntrl=      2527 IOpCl=  0 I1Cent=           0 NGrid=           0
         NMat0=    1 NMatS0=      1 NMatT0=    0 NMatD0=    1 NMtDS0=    0 NMtDT0=    0
 Symmetry not used in FoFCou.
 Leave Link  703 at Tue May 12 14:12:13 2026, MaxMem=  4026531840 cpu:               7.8 elap:               0.8
 (Enter /opt/apps/eb/software/Gaussian/16.C.02-AVX2/g16/l716.exe)
 Dipole        = 7.44793612D-01 1.14420938D+00 2.62895424D-01
 ***** Axes restored to original set *****
 -------------------------------------------------------------------
 Center     Atomic                   Forces (Hartrees/Bohr)
 Number     Number              X              Y              Z
 -------------------------------------------------------------------
      1        6          -0.000106362    0.000079938    0.000037777
      2        1           0.000063599    0.000015594   -0.000037180
      3        1           0.000058628   -0.000013319    0.000011045
      4        6          -0.000112882   -0.000037369   -0.000037547
      5        1           0.000027782   -0.000040810   -0.000031240
      6        6           0.000121178   -0.000003390    0.000056425
      7        1          -0.000039039   -0.000036481    0.000025656
      8        1           0.000039136   -0.000000807   -0.000052875
      9       17          -0.000042947    0.000017779   -0.000001326
     10        8          -0.000009095    0.000018865    0.000029264
 -------------------------------------------------------------------
 Cartesian Forces:  Max     0.000121178 RMS     0.000050556
 Leave Link  716 at Tue May 12 14:12:13 2026, MaxMem=  4026531840 cpu:               0.1 elap:               0.0
 (Enter /opt/apps/eb/software/Gaussian/16.C.02-AVX2/g16/l103.exe)

 GradGradGradGradGradGradGradGradGradGradGradGradGradGradGradGradGradGrad
 Berny optimization.
 Using GEDIIS/GDIIS optimizer.
 FormGI is forming the generalized inverse of G from B-inverse, IUseBI=4.
 Internal  Forces:  Max     0.000086649 RMS     0.000034776
 Search for a local minimum.
 Step number   6 out of a maximum of   49
 All quantities printed in internal units (Hartrees-Bohrs-Radians)
 RMS Force = .34776D-04 SwitMx=.10000D-02 MixMth= 2
 Mixed Optimization -- En-DIIS/RFO-DIIS
 Swapping is turned off.
 Update second derivatives using D2CorX and points    1    2    3    4    5
                                                      6
 DE= -1.48D-06 DEPred=-1.23D-06 R= 1.21D+00
 TightC=F SS=  1.41D+00  RLast= 9.13D-03 DXNew= 8.4853D-01 2.7387D-02
 Trust test= 1.21D+00 RLast= 9.13D-03 DXMaxT set to 5.05D-01
 ITU=  1  1  1  1  1  0
     Eigenvalues ---    0.00838   0.03037   0.03310   0.04968   0.06389
     Eigenvalues ---    0.06564   0.12086   0.13932   0.15322   0.16014
     Eigenvalues ---    0.16028   0.16380   0.21446   0.23501   0.25778
     Eigenvalues ---    0.28003   0.30349   0.31204   0.31810   0.34916
     Eigenvalues ---    0.36091   0.39654   0.41616   0.44401
 En-DIIS/RFO-DIIS/Sim-DIIS IScMMF=       -3 using points:     6    5    4    3
 RFO step:  Lambda=-9.24529488D-07.
 NNeg= 0 NGDIIS= 4 SimSw=  2.50D-01 Rises=F DC= -1.48D-06 SmlDif=  1.00D-05
 NRisDI= 0 DoIntr=F SqrtH=F CThrHd= 10.0 CDAdj=  3.0
 RMS Error=  0.1473300209D-02 NUsed= 4 OKEnD=F EnDIS=F
 InvSVX:  RCond= 1.08D-06 Info=           0 Equed=N FErr=  6.82D-14 BErr=  4.03D-17
 DidBck=F Rises=F RFO-DIIS coefs:    1.81707   -0.66888   -0.20904    0.06085
 Iteration  1 RMS(Cart)=  0.00150170 RMS(Int)=  0.00000179
 Iteration  2 RMS(Cart)=  0.00000128 RMS(Int)=  0.00000130
 Iteration  3 RMS(Cart)=  0.00000000 RMS(Int)=  0.00000130
 ITry= 1 IFail=0 DXMaxC= 3.88D-03 DCOld= 1.00D+10 DXMaxT= 5.05D-01 DXLimC= 3.00D+00 Rises=F
 Variable       Old X    -DE/DX   Delta X   Delta X   Delta X     New X
                                 (Linear)    (Quad)   (Total)
    R1        2.05801   0.00005  -0.00019   0.00024   0.00005   2.05806
    R2        2.05564   0.00005  -0.00030   0.00033   0.00003   2.05567
    R3        2.77497   0.00001  -0.00001  -0.00001  -0.00002   2.77495
    R4        2.68775   0.00002   0.00070  -0.00051   0.00019   2.68794
    R5        2.05901  -0.00002  -0.00025   0.00012  -0.00013   2.05887
    R6        2.83561  -0.00009  -0.00039   0.00015  -0.00024   2.83537
    R7        2.67976  -0.00004   0.00096  -0.00073   0.00023   2.67999
    R8        2.06138  -0.00004  -0.00013   0.00005  -0.00007   2.06130
    R9        2.06267  -0.00003  -0.00009   0.00005  -0.00004   2.06263
   R10        3.40130   0.00003  -0.00012   0.00020   0.00008   3.40138
    A1        2.01970  -0.00005  -0.00164   0.00082  -0.00081   2.01889
    A2        2.08750   0.00006   0.00072  -0.00009   0.00063   2.08813
    A3        2.00967   0.00003   0.00089  -0.00069   0.00020   2.00987
    A4        2.08374   0.00002   0.00078  -0.00038   0.00041   2.08415
    A5        2.01594  -0.00001   0.00010  -0.00018  -0.00008   2.01585
    A6        2.07155  -0.00002   0.00076  -0.00072   0.00005   2.07160
    A7        2.09656  -0.00004  -0.00148   0.00077  -0.00071   2.09585
    A8        2.01549   0.00005   0.00087  -0.00026   0.00061   2.01610
    A9        1.99823  -0.00003  -0.00010   0.00015   0.00006   1.99829
   A10        2.03720  -0.00000  -0.00073   0.00035  -0.00038   2.03682
   A11        1.93019   0.00001  -0.00036   0.00014  -0.00022   1.92998
   A12        1.93147  -0.00001   0.00073  -0.00049   0.00024   1.93171
   A13        1.94654   0.00007  -0.00009   0.00042   0.00033   1.94687
   A14        1.91830  -0.00001  -0.00053   0.00028  -0.00025   1.91805
   A15        1.87180  -0.00004   0.00087  -0.00085   0.00003   1.87182
   A16        1.86351  -0.00002  -0.00064   0.00051  -0.00013   1.86337
    D1       -2.68848  -0.00002   0.00043  -0.00040   0.00004  -2.68845
    D2       -0.03221  -0.00002   0.00106  -0.00096   0.00010  -0.03211
    D3       -0.01395   0.00002  -0.00030   0.00064   0.00034  -0.01361
    D4        2.64232   0.00001   0.00033   0.00008   0.00041   2.64272
    D5        0.55959   0.00003   0.00158   0.00104   0.00262   0.56221
    D6       -1.57042   0.00005   0.00200   0.00093   0.00292  -1.56750
    D7        2.64096   0.00003   0.00238   0.00034   0.00272   2.64368
    D8       -3.05247   0.00001   0.00218   0.00037   0.00255  -3.04992
    D9        1.10070   0.00003   0.00260   0.00026   0.00285   1.10356
   D10       -0.97110   0.00001   0.00298  -0.00033   0.00265  -0.96845
   D11       -0.62752   0.00002   0.00221   0.00074   0.00295  -0.62457
   D12       -2.75753   0.00004   0.00263   0.00063   0.00326  -2.75427
   D13        1.45385   0.00002   0.00302   0.00004   0.00305   1.45691
         Item               Value     Threshold  Converged?
 Maximum Force            0.000087     0.000450     YES
 RMS     Force            0.000035     0.000300     YES
 Maximum Displacement     0.003879     0.001800     NO 
 RMS     Displacement     0.001502     0.001200     NO 
 Predicted change in Energy=-4.601378D-07
 Lowest energy point so far.  Saving SCF results.
 GradGradGradGradGradGradGradGradGradGradGradGradGradGradGradGradGradGrad

 Leave Link  103 at Tue May 12 14:12:13 2026, MaxMem=  4026531840 cpu:               0.2 elap:               0.0
 (Enter /opt/apps/eb/software/Gaussian/16.C.02-AVX2/g16/l202.exe)
                          Input orientation:                          
 ---------------------------------------------------------------------
 Center     Atomic      Atomic             Coordinates (Angstroms)
 Number     Number       Type             X           Y           Z
 ---------------------------------------------------------------------
      1          6           0        2.140107    0.289181   -0.013330
      2          1           0        2.297321    0.934712   -0.876269
      3          1           0        2.984912    0.195895    0.665594
      4          6           0        0.779245    0.075099    0.495143
      5          1           0        0.648055   -0.186438    1.544628
      6          6           0       -0.382216    0.775569   -0.146409
      7          1           0       -0.203590    0.915900   -1.213289
      8          1           0       -0.561274    1.740961    0.330372
      9         17           0       -1.901447   -0.175252    0.019808
     10          8           0        1.433217   -0.915877   -0.280450
 ---------------------------------------------------------------------
                    Distance matrix (angstroms):
                    1          2          3          4          5
     1  C    0.000000
     2  H    1.089078   0.000000
     3  H    1.087813   1.842817   0.000000
     4  C    1.468441   2.219067   2.215539   0.000000
     5  H    2.208996   3.136526   2.525823   1.089509   0.000000
     6  C    2.572236   2.781716   3.511827   1.500413   2.201482
     7  H    2.706583   2.523587   3.770299   2.142814   3.089750
     8  H    3.085977   3.205868   3.882659   2.144583   2.579101
     9  Cl   4.068286   4.434482   4.942803   2.733995   2.970718
    10  O    1.422395   2.127523   2.130445   1.418188   2.116476
                    6          7          8          9         10
     6  C    0.000000
     7  H    1.090795   0.000000
     8  H    1.091496   1.786492   0.000000
     9  Cl   1.799931   2.365135   2.358896   0.000000
    10  O    2.484905   2.627686   3.377852   3.429091   0.000000
 Stoichiometry    C3H5ClO
 Framework group  C1[X(C3H5ClO)]
 Deg. of freedom    24
 Full point group                 C1      NOp   1
 RotChk:  IX=0 Diff= 1.09D-03
 Largest Abelian subgroup         C1      NOp   1
 Largest concise Abelian subgroup C1      NOp   1
                         Standard orientation:                         
 ---------------------------------------------------------------------
 Center     Atomic      Atomic             Coordinates (Angstroms)
 Number     Number       Type             X           Y           Z
 ---------------------------------------------------------------------
      1          6           0        2.146961    0.308175   -0.018701
      2          1           0        2.300081    0.955577   -0.880975
      3          1           0        2.990732    0.223213    0.662598
      4          6           0        0.786896    0.080130    0.485819
      5          1           0        0.655376   -0.183099    1.534839
      6          6           0       -0.379773    0.769024   -0.158811
      7          1           0       -0.199541    0.911541   -1.225131
      8          1           0       -0.569964    1.732380    0.317777
      9         17           0       -1.889757   -0.197205    0.002760
     10          8           0        1.453085   -0.903888   -0.288234
 ---------------------------------------------------------------------
 Rotational constants (GHZ):          13.6164372           2.0435131           1.9047381
 Leave Link  202 at Tue May 12 14:12:13 2026, MaxMem=  4026531840 cpu:               0.0 elap:               0.0
 (Enter /opt/apps/eb/software/Gaussian/16.C.02-AVX2/g16/l301.exe)
 Standard basis: 6-31+G(d,p) (6D, 7F)
 Ernie: Thresh=  0.10000D-02 Tol=  0.10000D-05 Strict=F.
 There are   124 symmetry adapted cartesian basis functions of A   symmetry.
 There are   124 symmetry adapted basis functions of A   symmetry.
   124 basis functions,   219 primitive gaussians,   124 cartesian basis functions
    24 alpha electrons       24 beta electrons
       nuclear repulsion energy       215.8978865684 Hartrees.
 IExCor= 4639 DFT=T Ex+Corr=wB97XD ExCW=0 ScaHFX=  1.000000
 ScaDFX=  1.000000  1.000000  1.000000  1.000000 ScalE2=  1.000000  1.000000
 IRadAn=      5 IRanWt=     -1 IRanGd=            0 ICorTp=0 IEmpDi=121
 HFx  wShort=  0.000000 wLong=  0.200000 cFull=  0.222036 cShort=  0.000000 cLong=  0.777964
 DFx  wShort=  0.000000 wLong=  0.200000 cFull=  0.000000 cShort=  0.000000 cLong=  1.000000
 NAtoms=   10 NActive=   10 NUniq=   10 SFac= 1.00D+00 NAtFMM=   60 NAOKFM=F Big=F
 Integral buffers will be    131072 words long.
 Raffenetti 2 integral format.
 Two-electron integral symmetry is turned on.
 R6Disp:  Grimme-D2 Dispersion energy=       -0.0033109598 Hartrees.
 Nuclear repulsion after empirical dispersion term =      215.8945756085 Hartrees.
 Leave Link  301 at Tue May 12 14:12:13 2026, MaxMem=  4026531840 cpu:               0.1 elap:               0.0
 (Enter /opt/apps/eb/software/Gaussian/16.C.02-AVX2/g16/l302.exe)
 NPDir=0 NMtPBC=     1 NCelOv=     1 NCel=       1 NClECP=     1 NCelD=      1
         NCelK=      1 NCelE2=     1 NClLst=     1 CellRange=     0.0.
 One-electron integrals computed using PRISM.
 One-electron integral symmetry used in STVInt
 NBasis=   124 RedAO= T EigKep=  7.80D-05  NBF=   124
 NBsUse=   124 1.00D-06 EigRej= -1.00D+00 NBFU=   124
 Precomputing XC quadrature grid using
 IXCGrd= 4 IRadAn=           5 IRanWt=          -1 IRanGd=           0 AccXCQ= 1.00D-12.
 Generated NRdTot=       0 NPtTot=           0 NUsed=           0 NTot=          32
 NSgBfM=   124   124   124   124   124 MxSgAt=    10 MxSgA2=    10.
 Leave Link  302 at Tue May 12 14:12:13 2026, MaxMem=  4026531840 cpu:               1.0 elap:               0.1
 (Enter /opt/apps/eb/software/Gaussian/16.C.02-AVX2/g16/l303.exe)
 DipDrv:  MaxL=1.
 Leave Link  303 at Tue May 12 14:12:13 2026, MaxMem=  4026531840 cpu:               0.1 elap:               0.0
 (Enter /opt/apps/eb/software/Gaussian/16.C.02-AVX2/g16/l401.exe)
 Initial guess from the checkpoint file:  "/users/fsw516/Gaussian_Submission/Gau-3497943.chk"
 B after Tr=     0.000000   -0.000000   -0.000000
         Rot=    1.000000   -0.000305    0.000042   -0.000020 Ang=  -0.04 deg.
 Guess basis will be translated and rotated to current coordinates.
 JPrj=2 DoOrth=T DoCkMO=T.
 Leave Link  401 at Tue May 12 14:12:13 2026, MaxMem=  4026531840 cpu:               0.3 elap:               0.1
 (Enter /opt/apps/eb/software/Gaussian/16.C.02-AVX2/g16/l502.exe)
 Keep R1 ints in memory in canonical form, NReq=76270117.
 FoFCou: FMM=F IPFlag=           0 FMFlag=           0 FMFlg1=           0
         NFxFlg=           0 DoJE=F BraDBF=F KetDBF=F FulRan=T
         wScrn=  0.000000 ICntrl=       600 IOpCl=  0 I1Cent=           0 NGrid=           0
         NMat0=    1 NMatS0=   7750 NMatT0=    0 NMatD0=    1 NMtDS0=    0 NMtDT0=    0
 Symmetry not used in FoFCou.
 Two-electron integral symmetry not used.
 Closed shell SCF:
 Using DIIS extrapolation, IDIIS=  1040.
 NGot=  4026531840 LenX=  3966427239 LenY=  3966411422
 Requested convergence on RMS density matrix=1.00D-08 within 128 cycles.
 Requested convergence on MAX density matrix=1.00D-06.
 Requested convergence on             energy=1.00D-06.
 No special actions if energy rises.

 Cycle   1  Pass 1  IDiag  1:
 E= -652.638620998238    
 DIIS: error= 6.33D-05 at cycle   1 NSaved=   1.
 NSaved= 1 IEnMin= 1 EnMin= -652.638620998238     IErMin= 1 ErrMin= 6.33D-05
 ErrMax= 6.33D-05  0.00D+00 EMaxC= 1.00D-01 BMatC= 1.52D-06 BMatP= 1.52D-06
 IDIUse=1 WtCom= 1.00D+00 WtEn= 0.00D+00
 Coeff-Com:  0.100D+01
 Coeff:      0.100D+01
 Gap=     0.864 Goal=   None    Shift=    0.000
 RMSDP=2.01D-05 MaxDP=4.12D-04              OVMax= 4.15D-04

 Cycle   2  Pass 1  IDiag  1:
 E= -652.638623570499     Delta-E=       -0.000002572261 Rises=F Damp=F
 DIIS: error= 1.85D-05 at cycle   2 NSaved=   2.
 NSaved= 2 IEnMin= 2 EnMin= -652.638623570499     IErMin= 2 ErrMin= 1.85D-05
 ErrMax= 1.85D-05  0.00D+00 EMaxC= 1.00D-01 BMatC= 6.32D-08 BMatP= 1.52D-06
 IDIUse=1 WtCom= 1.00D+00 WtEn= 0.00D+00
 Coeff-Com: -0.192D+00 0.119D+01
 Coeff:     -0.192D+00 0.119D+01
 Gap=     0.432 Goal=   None    Shift=    0.000
 RMSDP=6.06D-06 MaxDP=1.11D-04 DE=-2.57D-06 OVMax= 1.35D-04

 Cycle   3  Pass 1  IDiag  1:
 E= -652.638623733184     Delta-E=       -0.000000162684 Rises=F Damp=F
 DIIS: error= 4.73D-06 at cycle   3 NSaved=   3.
 NSaved= 3 IEnMin= 3 EnMin= -652.638623733184     IErMin= 3 ErrMin= 4.73D-06
 ErrMax= 4.73D-06  0.00D+00 EMaxC= 1.00D-01 BMatC= 8.21D-09 BMatP= 6.32D-08
 IDIUse=1 WtCom= 1.00D+00 WtEn= 0.00D+00
 Coeff-Com: -0.715D-01 0.355D+00 0.717D+00
 Coeff:     -0.715D-01 0.355D+00 0.717D+00
 Gap=     0.432 Goal=   None    Shift=    0.000
 RMSDP=1.70D-06 MaxDP=7.59D-05 DE=-1.63D-07 OVMax= 2.86D-05

 Cycle   4  Pass 1  IDiag  1:
 E= -652.638623741096     Delta-E=       -0.000000007912 Rises=F Damp=F
 DIIS: error= 2.45D-06 at cycle   4 NSaved=   4.
 NSaved= 4 IEnMin= 4 EnMin= -652.638623741096     IErMin= 4 ErrMin= 2.45D-06
 ErrMax= 2.45D-06  0.00D+00 EMaxC= 1.00D-01 BMatC= 2.10D-09 BMatP= 8.21D-09
 IDIUse=1 WtCom= 1.00D+00 WtEn= 0.00D+00
 Coeff-Com:  0.108D-01-0.107D+00 0.306D+00 0.791D+00
 Coeff:      0.108D-01-0.107D+00 0.306D+00 0.791D+00
 Gap=     0.432 Goal=   None    Shift=    0.000
 RMSDP=7.37D-07 MaxDP=1.95D-05 DE=-7.91D-09 OVMax= 1.32D-05

 Cycle   5  Pass 1  IDiag  1:
 E= -652.638623743332     Delta-E=       -0.000000002236 Rises=F Damp=F
 DIIS: error= 1.03D-06 at cycle   5 NSaved=   5.
 NSaved= 5 IEnMin= 5 EnMin= -652.638623743332     IErMin= 5 ErrMin= 1.03D-06
 ErrMax= 1.03D-06  0.00D+00 EMaxC= 1.00D-01 BMatC= 2.09D-10 BMatP= 2.10D-09
 IDIUse=1 WtCom= 1.00D+00 WtEn= 0.00D+00
 Coeff-Com:  0.932D-02-0.710D-01 0.945D-01 0.367D+00 0.600D+00
 Coeff:      0.932D-02-0.710D-01 0.945D-01 0.367D+00 0.600D+00
 Gap=     0.432 Goal=   None    Shift=    0.000
 RMSDP=2.00D-07 MaxDP=3.44D-06 DE=-2.24D-09 OVMax= 3.86D-06

 Cycle   6  Pass 1  IDiag  1:
 E= -652.638623743532     Delta-E=       -0.000000000199 Rises=F Damp=F
 DIIS: error= 1.87D-07 at cycle   6 NSaved=   6.
 NSaved= 6 IEnMin= 6 EnMin= -652.638623743532     IErMin= 6 ErrMin= 1.87D-07
 ErrMax= 1.87D-07  0.00D+00 EMaxC= 1.00D-01 BMatC= 1.09D-11 BMatP= 2.09D-10
 IDIUse=1 WtCom= 1.00D+00 WtEn= 0.00D+00
 Coeff-Com:  0.301D-03 0.158D-02-0.268D-01-0.396D-01 0.131D+00 0.934D+00
 Coeff:      0.301D-03 0.158D-02-0.268D-01-0.396D-01 0.131D+00 0.934D+00
 Gap=     0.432 Goal=   None    Shift=    0.000
 RMSDP=1.19D-07 MaxDP=2.70D-06 DE=-1.99D-10 OVMax= 2.48D-06

 Cycle   7  Pass 1  IDiag  1:
 E= -652.638623743550     Delta-E=       -0.000000000018 Rises=F Damp=F
 DIIS: error= 7.31D-08 at cycle   7 NSaved=   7.
 NSaved= 7 IEnMin= 7 EnMin= -652.638623743550     IErMin= 7 ErrMin= 7.31D-08
 ErrMax= 7.31D-08  0.00D+00 EMaxC= 1.00D-01 BMatC= 9.76D-13 BMatP= 1.09D-11
 IDIUse=1 WtCom= 1.00D+00 WtEn= 0.00D+00
 Coeff-Com: -0.745D-03 0.672D-02-0.156D-01-0.443D-01-0.180D-01 0.236D+00
 Coeff-Com:  0.835D+00
 Coeff:     -0.745D-03 0.672D-02-0.156D-01-0.443D-01-0.180D-01 0.236D+00
 Coeff:      0.835D+00
 Gap=     0.432 Goal=   None    Shift=    0.000
 RMSDP=4.24D-08 MaxDP=9.99D-07 DE=-1.84D-11 OVMax= 7.92D-07

 Cycle   8  Pass 1  IDiag  1:
 E= -652.638623743554     Delta-E=       -0.000000000004 Rises=F Damp=F
 DIIS: error= 2.12D-08 at cycle   8 NSaved=   8.
 NSaved= 8 IEnMin= 8 EnMin= -652.638623743554     IErMin= 8 ErrMin= 2.12D-08
 ErrMax= 2.12D-08  0.00D+00 EMaxC= 1.00D-01 BMatC= 1.17D-13 BMatP= 9.76D-13
 IDIUse=1 WtCom= 1.00D+00 WtEn= 0.00D+00
 Coeff-Com: -0.238D-03 0.168D-02-0.137D-02-0.786D-02-0.193D-01-0.375D-01
 Coeff-Com:  0.230D+00 0.835D+00
 Coeff:     -0.238D-03 0.168D-02-0.137D-02-0.786D-02-0.193D-01-0.375D-01
 Coeff:      0.230D+00 0.835D+00
 Gap=     0.432 Goal=   None    Shift=    0.000
 RMSDP=1.29D-08 MaxDP=3.40D-07 DE=-3.87D-12 OVMax= 2.64D-07

 Cycle   9  Pass 1  IDiag  1:
 E= -652.638623743547     Delta-E=        0.000000000006 Rises=F Damp=F
 DIIS: error= 5.32D-09 at cycle   9 NSaved=   9.
 NSaved= 9 IEnMin= 8 EnMin= -652.638623743554     IErMin= 9 ErrMin= 5.32D-09
 ErrMax= 5.32D-09  0.00D+00 EMaxC= 1.00D-01 BMatC= 9.82D-15 BMatP= 1.17D-13
 IDIUse=1 WtCom= 1.00D+00 WtEn= 0.00D+00
 Coeff-Com:  0.340D-04-0.392D-03 0.143D-02 0.338D-02-0.142D-02-0.328D-01
 Coeff-Com: -0.475D-01 0.184D+00 0.894D+00
 Coeff:      0.340D-04-0.392D-03 0.143D-02 0.338D-02-0.142D-02-0.328D-01
 Coeff:     -0.475D-01 0.184D+00 0.894D+00
 Gap=     0.432 Goal=   None    Shift=    0.000
 RMSDP=3.83D-09 MaxDP=1.23D-07 DE= 6.37D-12 OVMax= 8.99D-08

 SCF Done:  E(RwB97XD) =  -652.638623744     A.U. after    9 cycles
            NFock=  9  Conv=0.38D-08     -V/T= 2.0047
 KE= 6.495588350599D+02 PE=-1.973947106394D+03 EE= 4.558550719816D+02
 Leave Link  502 at Tue May 12 14:12:15 2026, MaxMem=  4026531840 cpu:              16.6 elap:               1.7
 (Enter /opt/apps/eb/software/Gaussian/16.C.02-AVX2/g16/l701.exe)
 ... and contract with generalized density number  0.
 Compute integral first derivatives.
 R6Disp: Adding Grimme-D2 dispersion energy 1st derivatives to the gradient.
 Leave Link  701 at Tue May 12 14:12:15 2026, MaxMem=  4026531840 cpu:               2.3 elap:               0.3
 (Enter /opt/apps/eb/software/Gaussian/16.C.02-AVX2/g16/l702.exe)
 L702 exits ... SP integral derivatives will be done elsewhere.
 Leave Link  702 at Tue May 12 14:12:15 2026, MaxMem=  4026531840 cpu:               0.0 elap:               0.0
 (Enter /opt/apps/eb/software/Gaussian/16.C.02-AVX2/g16/l703.exe)
 Integral derivatives from FoFJK, PRISM(SPDF).
 Compute integral first derivatives, UseDBF=F ICtDFT=           0.
 Calling FoFJK, ICntrl=      2127 FMM=F ISym2X=0 I1Cent= 0 IOpClX= 0 NMat=1 NMatS=1 NMatT=0.
 FoFJK:  IHMeth= 1 ICntrl=    2127 DoSepK=T KAlg= 0 I1Cent=           0 FoldK=F
 IRaf=         1 NMat=       1 IRICut=       1 DoRegI=T DoRafI=F ISym2E= 0 IDoP0=0 IntGTp=1.
 FoFCou: FMM=F IPFlag=           0 FMFlag=      100000 FMFlg1=         800
         NFxFlg=           0 DoJE=F BraDBF=F KetDBF=F FulRan=T
         wScrn=  0.000000 ICntrl=      2527 IOpCl=  0 I1Cent=           0 NGrid=           0
         NMat0=    1 NMatS0=      1 NMatT0=    0 NMatD0=    1 NMtDS0=    0 NMtDT0=    0
 Symmetry not used in FoFCou.
 Leave Link  703 at Tue May 12 14:12:16 2026, MaxMem=  4026531840 cpu:               8.0 elap:               0.8
 (Enter /opt/apps/eb/software/Gaussian/16.C.02-AVX2/g16/l716.exe)
 Dipole        = 7.44428760D-01 1.14342353D+00 2.63749790D-01
 ***** Axes restored to original set *****
 -------------------------------------------------------------------
 Center     Atomic                   Forces (Hartrees/Bohr)
 Number     Number              X              Y              Z
 -------------------------------------------------------------------
      1        6          -0.000004768    0.000000906    0.000011979
      2        1          -0.000017182    0.000011360   -0.000041109
      3        1           0.000017590   -0.000024713    0.000055398
      4        6          -0.000004798   -0.000054606   -0.000152067
      5        1           0.000004504   -0.000036493    0.000001463
      6        6           0.000013098    0.000050746    0.000073013
      7        1          -0.000031428   -0.000043682   -0.000001970
      8        1           0.000037886    0.000005106   -0.000020560
      9       17          -0.000018984    0.000008338   -0.000006315
     10        8           0.000004082    0.000083036    0.000080168
 -------------------------------------------------------------------
 Cartesian Forces:  Max     0.000152067 RMS     0.000044879
 Leave Link  716 at Tue May 12 14:12:16 2026, MaxMem=  4026531840 cpu:               0.1 elap:               0.0
 (Enter /opt/apps/eb/software/Gaussian/16.C.02-AVX2/g16/l103.exe)

 GradGradGradGradGradGradGradGradGradGradGradGradGradGradGradGradGradGrad
 Berny optimization.
 Using GEDIIS/GDIIS optimizer.
 FormGI is forming the generalized inverse of G from B-inverse, IUseBI=4.
 Internal  Forces:  Max     0.000080710 RMS     0.000027214
 Search for a local minimum.
 Step number   7 out of a maximum of   49
 All quantities printed in internal units (Hartrees-Bohrs-Radians)
 RMS Force = .27214D-04 SwitMx=.10000D-02 MixMth= 2
 Mixed Optimization -- En-DIIS/RFO-DIIS
 Swapping is turned off.
 Update second derivatives using D2CorX and points    1    2    3    4    5
                                                      6    7
 DE= -5.97D-07 DEPred=-4.60D-07 R= 1.30D+00
 Trust test= 1.30D+00 RLast= 8.72D-03 DXMaxT set to 5.05D-01
 ITU=  0  1  1  1  1  1  0
     Eigenvalues ---    0.00441   0.02947   0.03282   0.05002   0.06452
     Eigenvalues ---    0.06631   0.12387   0.14436   0.16003   0.16021
     Eigenvalues ---    0.16258   0.18079   0.21392   0.23327   0.25745
     Eigenvalues ---    0.27919   0.30157   0.31206   0.32157   0.35495
     Eigenvalues ---    0.38649   0.40361   0.41785   0.43047
 En-DIIS/RFO-DIIS/Sim-DIIS IScMMF=       -3 using points:     7    6    5    4    3
 RFO step:  Lambda=-6.32640631D-07.
 NNeg= 0 NGDIIS= 5 SimSw=  2.50D-01 Rises=F DC= -5.97D-07 SmlDif=  1.00D-05
 NRisDI= 0 DoIntr=F SqrtH=F CThrHd= 10.0 CDAdj=  3.0
 RMS Error=  0.1706538978D-02 NUsed= 5 OKEnD=F EnDIS=F
 InvSVX:  RCond= 1.06D-07 Info=           0 Equed=N FErr=  8.08D-13 BErr=  7.35D-17
 DidBck=F Rises=F RFO-DIIS coefs:    2.08508   -0.85368   -0.33412    0.10168    0.00104
 Iteration  1 RMS(Cart)=  0.00182316 RMS(Int)=  0.00000175
 Iteration  2 RMS(Cart)=  0.00000181 RMS(Int)=  0.00000036
 Iteration  3 RMS(Cart)=  0.00000000 RMS(Int)=  0.00000036
 ITry= 1 IFail=0 DXMaxC= 4.48D-03 DCOld= 1.00D+10 DXMaxT= 5.05D-01 DXLimC= 3.00D+00 Rises=F
 Variable       Old X    -DE/DX   Delta X   Delta X   Delta X     New X
                                 (Linear)    (Quad)   (Total)
    R1        2.05806   0.00004   0.00008   0.00004   0.00012   2.05817
    R2        2.05567   0.00005   0.00005   0.00007   0.00012   2.05579
    R3        2.77495   0.00001  -0.00007   0.00003  -0.00004   2.77491
    R4        2.68794  -0.00004   0.00046  -0.00034   0.00012   2.68806
    R5        2.05887   0.00001  -0.00019   0.00013  -0.00006   2.05882
    R6        2.83537  -0.00001  -0.00048   0.00030  -0.00018   2.83519
    R7        2.67999  -0.00008   0.00008  -0.00012  -0.00004   2.67995
    R8        2.06130  -0.00001  -0.00010   0.00004  -0.00007   2.06124
    R9        2.06263  -0.00001  -0.00006  -0.00001  -0.00006   2.06257
   R10        3.40138   0.00001   0.00013  -0.00005   0.00008   3.40146
    A1        2.01889   0.00004  -0.00101   0.00070  -0.00031   2.01858
    A2        2.08813  -0.00002   0.00087  -0.00059   0.00028   2.08841
    A3        2.00987   0.00002   0.00031  -0.00009   0.00022   2.01010
    A4        2.08415  -0.00003   0.00024  -0.00020   0.00004   2.08419
    A5        2.01585  -0.00002   0.00018  -0.00020  -0.00002   2.01583
    A6        2.07160  -0.00003  -0.00018   0.00006  -0.00013   2.07148
    A7        2.09585   0.00003  -0.00080   0.00034  -0.00046   2.09540
    A8        2.01610  -0.00001   0.00079  -0.00041   0.00038   2.01648
    A9        1.99829  -0.00003   0.00005  -0.00016  -0.00011   1.99818
   A10        2.03682   0.00004  -0.00038   0.00051   0.00013   2.03695
   A11        1.92998   0.00001  -0.00009  -0.00009  -0.00018   1.92979
   A12        1.93171  -0.00002   0.00014  -0.00001   0.00013   1.93184
   A13        1.94687   0.00003   0.00048  -0.00016   0.00032   1.94719
   A14        1.91805   0.00001  -0.00035   0.00025  -0.00010   1.91795
   A15        1.87182  -0.00003  -0.00006  -0.00011  -0.00017   1.87165
   A16        1.86337   0.00001  -0.00014   0.00014  -0.00000   1.86337
    D1       -2.68845  -0.00001   0.00017  -0.00009   0.00008  -2.68836
    D2       -0.03211  -0.00002  -0.00004  -0.00024  -0.00028  -0.03238
    D3       -0.01361  -0.00000   0.00015  -0.00013   0.00002  -0.01360
    D4        2.64272  -0.00001  -0.00007  -0.00028  -0.00034   2.64238
    D5        0.56221   0.00004   0.00328   0.00035   0.00363   0.56584
    D6       -1.56750   0.00004   0.00370   0.00010   0.00379  -1.56370
    D7        2.64368   0.00002   0.00347   0.00004   0.00350   2.64719
    D8       -3.04992   0.00002   0.00284   0.00032   0.00316  -3.04677
    D9        1.10356   0.00002   0.00325   0.00007   0.00332   1.10688
   D10       -0.96845   0.00001   0.00302   0.00001   0.00303  -0.96542
   D11       -0.62457   0.00001   0.00346   0.00018   0.00363  -0.62093
   D12       -2.75427   0.00001   0.00387  -0.00007   0.00380  -2.75048
   D13        1.45691   0.00000   0.00364  -0.00014   0.00351   1.46041
         Item               Value     Threshold  Converged?
 Maximum Force            0.000081     0.000450     YES
 RMS     Force            0.000027     0.000300     YES
 Maximum Displacement     0.004483     0.001800     NO 
 RMS     Displacement     0.001823     0.001200     NO 
 Predicted change in Energy=-3.156893D-07
 Lowest energy point so far.  Saving SCF results.
 GradGradGradGradGradGradGradGradGradGradGradGradGradGradGradGradGradGrad

 Leave Link  103 at Tue May 12 14:12:16 2026, MaxMem=  4026531840 cpu:               0.4 elap:               0.1
 (Enter /opt/apps/eb/software/Gaussian/16.C.02-AVX2/g16/l202.exe)
                          Input orientation:                          
 ---------------------------------------------------------------------
 Center     Atomic      Atomic             Coordinates (Angstroms)
 Number     Number       Type             X           Y           Z
 ---------------------------------------------------------------------
      1          6           0        2.139947    0.289826   -0.012900
      2          1           0        2.297356    0.936404   -0.875096
      3          1           0        2.984623    0.196454    0.666278
      4          6           0        0.779056    0.074226    0.494790
      5          1           0        0.647771   -0.188471    1.543942
      6          6           0       -0.382105    0.775115   -0.146624
      7          1           0       -0.204195    0.913528   -1.213838
      8          1           0       -0.559507    1.741508    0.328670
      9         17           0       -1.902620   -0.173301    0.022065
     10          8           0        1.434005   -0.915537   -0.281487
 ---------------------------------------------------------------------
                    Distance matrix (angstroms):
                    1          2          3          4          5
     1  C    0.000000
     2  H    1.089139   0.000000
     3  H    1.087877   1.842742   0.000000
     4  C    1.468420   2.219274   2.215598   0.000000
     5  H    2.208872   3.136594   2.525735   1.089479   0.000000
     6  C    2.571797   2.781402   3.511484   1.500317   2.201625
     7  H    2.706707   2.524485   3.770622   2.142574   3.089595
     8  H    3.084008   3.202953   3.880983   2.144569   2.580547
     9  Cl   4.069160   4.435779   4.943367   2.734250   2.969989
    10  O    1.422461   2.127777   2.130540   1.418166   2.116360
                    6          7          8          9         10
     6  C    0.000000
     7  H    1.090760   0.000000
     8  H    1.091463   1.786373   0.000000
     9  Cl   1.799976   2.365015   2.358909   0.000000
    10  O    2.484904   2.626492   3.377317   3.431636   0.000000
 Stoichiometry    C3H5ClO
 Framework group  C1[X(C3H5ClO)]
 Deg. of freedom    24
 Full point group                 C1      NOp   1
 RotChk:  IX=0 Diff= 1.53D-03
 Largest Abelian subgroup         C1      NOp   1
 Largest concise Abelian subgroup C1      NOp   1
                         Standard orientation:                         
 ---------------------------------------------------------------------
 Center     Atomic      Atomic             Coordinates (Angstroms)
 Number     Number       Type             X           Y           Z
 ---------------------------------------------------------------------
      1          6           0        2.146979    0.309147   -0.017229
      2          1           0        2.300557    0.958305   -0.878177
      3          1           0        2.990213    0.223960    0.664810
      4          6           0        0.786675    0.078614    0.485451
      5          1           0        0.654505   -0.186613    1.533854
      6          6           0       -0.379581    0.767897   -0.159288
      7          1           0       -0.199412    0.909361   -1.225723
      8          1           0       -0.568853    1.731836    0.316411
      9         17           0       -1.890563   -0.196723    0.003050
     10          8           0        1.454766   -0.903313   -0.289578
 ---------------------------------------------------------------------
 Rotational constants (GHZ):          13.6288418           2.0420245           1.9037416
 Leave Link  202 at Tue May 12 14:12:16 2026, MaxMem=  4026531840 cpu:               0.1 elap:               0.0
 (Enter /opt/apps/eb/software/Gaussian/16.C.02-AVX2/g16/l301.exe)
 Standard basis: 6-31+G(d,p) (6D, 7F)
 Ernie: Thresh=  0.10000D-02 Tol=  0.10000D-05 Strict=F.
 There are   124 symmetry adapted cartesian basis functions of A   symmetry.
 There are   124 symmetry adapted basis functions of A   symmetry.
   124 basis functions,   219 primitive gaussians,   124 cartesian basis functions
    24 alpha electrons       24 beta electrons
       nuclear repulsion energy       215.8802335496 Hartrees.
 IExCor= 4639 DFT=T Ex+Corr=wB97XD ExCW=0 ScaHFX=  1.000000
 ScaDFX=  1.000000  1.000000  1.000000  1.000000 ScalE2=  1.000000  1.000000
 IRadAn=      5 IRanWt=     -1 IRanGd=            0 ICorTp=0 IEmpDi=121
 HFx  wShort=  0.000000 wLong=  0.200000 cFull=  0.222036 cShort=  0.000000 cLong=  0.777964
 DFx  wShort=  0.000000 wLong=  0.200000 cFull=  0.000000 cShort=  0.000000 cLong=  1.000000
 NAtoms=   10 NActive=   10 NUniq=   10 SFac= 1.00D+00 NAtFMM=   60 NAOKFM=F Big=F
 Integral buffers will be    131072 words long.
 Raffenetti 2 integral format.
 Two-electron integral symmetry is turned on.
 R6Disp:  Grimme-D2 Dispersion energy=       -0.0033108532 Hartrees.
 Nuclear repulsion after empirical dispersion term =      215.8769226964 Hartrees.
 Leave Link  301 at Tue May 12 14:12:16 2026, MaxMem=  4026531840 cpu:               0.1 elap:               0.0
 (Enter /opt/apps/eb/software/Gaussian/16.C.02-AVX2/g16/l302.exe)
 NPDir=0 NMtPBC=     1 NCelOv=     1 NCel=       1 NClECP=     1 NCelD=      1
         NCelK=      1 NCelE2=     1 NClLst=     1 CellRange=     0.0.
 One-electron integrals computed using PRISM.
 One-electron integral symmetry used in STVInt
 NBasis=   124 RedAO= T EigKep=  7.77D-05  NBF=   124
 NBsUse=   124 1.00D-06 EigRej= -1.00D+00 NBFU=   124
 Precomputing XC quadrature grid using
 IXCGrd= 4 IRadAn=           5 IRanWt=          -1 IRanGd=           0 AccXCQ= 1.00D-12.
 Generated NRdTot=       0 NPtTot=           0 NUsed=           0 NTot=          32
 NSgBfM=   124   124   124   124   124 MxSgAt=    10 MxSgA2=    10.
 Leave Link  302 at Tue May 12 14:12:16 2026, MaxMem=  4026531840 cpu:               0.9 elap:               0.1
 (Enter /opt/apps/eb/software/Gaussian/16.C.02-AVX2/g16/l303.exe)
 DipDrv:  MaxL=1.
 Leave Link  303 at Tue May 12 14:12:16 2026, MaxMem=  4026531840 cpu:               0.1 elap:               0.0
 (Enter /opt/apps/eb/software/Gaussian/16.C.02-AVX2/g16/l401.exe)
 Initial guess from the checkpoint file:  "/users/fsw516/Gaussian_Submission/Gau-3497943.chk"
 B after Tr=     0.000000    0.000000    0.000000
         Rot=    1.000000   -0.000405    0.000050   -0.000043 Ang=  -0.05 deg.
 Guess basis will be translated and rotated to current coordinates.
 JPrj=2 DoOrth=T DoCkMO=T.
 Leave Link  401 at Tue May 12 14:12:17 2026, MaxMem=  4026531840 cpu:               0.2 elap:               0.1
 (Enter /opt/apps/eb/software/Gaussian/16.C.02-AVX2/g16/l502.exe)
 Keep R1 ints in memory in canonical form, NReq=76270117.
 FoFCou: FMM=F IPFlag=           0 FMFlag=           0 FMFlg1=           0
         NFxFlg=           0 DoJE=F BraDBF=F KetDBF=F FulRan=T
         wScrn=  0.000000 ICntrl=       600 IOpCl=  0 I1Cent=           0 NGrid=           0
         NMat0=    1 NMatS0=   7750 NMatT0=    0 NMatD0=    1 NMtDS0=    0 NMtDT0=    0
 Symmetry not used in FoFCou.
 Two-electron integral symmetry not used.
 Closed shell SCF:
 Using DIIS extrapolation, IDIIS=  1040.
 NGot=  4026531840 LenX=  3966427239 LenY=  3966411422
 Requested convergence on RMS density matrix=1.00D-08 within 128 cycles.
 Requested convergence on MAX density matrix=1.00D-06.
 Requested convergence on             energy=1.00D-06.
 No special actions if energy rises.

 Cycle   1  Pass 1  IDiag  1:
 E= -652.638620185997    
 DIIS: error= 7.31D-05 at cycle   1 NSaved=   1.
 NSaved= 1 IEnMin= 1 EnMin= -652.638620185997     IErMin= 1 ErrMin= 7.31D-05
 ErrMax= 7.31D-05  0.00D+00 EMaxC= 1.00D-01 BMatC= 2.21D-06 BMatP= 2.21D-06
 IDIUse=1 WtCom= 1.00D+00 WtEn= 0.00D+00
 Coeff-Com:  0.100D+01
 Coeff:      0.100D+01
 Gap=     0.864 Goal=   None    Shift=    0.000
 RMSDP=2.60D-05 MaxDP=6.37D-04              OVMax= 5.13D-04

 Cycle   2  Pass 1  IDiag  1:
 E= -652.638623896901     Delta-E=       -0.000003710904 Rises=F Damp=F
 DIIS: error= 2.35D-05 at cycle   2 NSaved=   2.
 NSaved= 2 IEnMin= 2 EnMin= -652.638623896901     IErMin= 2 ErrMin= 2.35D-05
 ErrMax= 2.35D-05  0.00D+00 EMaxC= 1.00D-01 BMatC= 9.02D-08 BMatP= 2.21D-06
 IDIUse=1 WtCom= 1.00D+00 WtEn= 0.00D+00
 Coeff-Com: -0.192D+00 0.119D+01
 Coeff:     -0.192D+00 0.119D+01
 Gap=     0.432 Goal=   None    Shift=    0.000
 RMSDP=8.90D-06 MaxDP=3.07D-04 DE=-3.71D-06 OVMax= 1.67D-04

 Cycle   3  Pass 1  IDiag  1:
 E= -652.638624131305     Delta-E=       -0.000000234404 Rises=F Damp=F
 DIIS: error= 4.53D-06 at cycle   3 NSaved=   3.
 NSaved= 3 IEnMin= 3 EnMin= -652.638624131305     IErMin= 3 ErrMin= 4.53D-06
 ErrMax= 4.53D-06  0.00D+00 EMaxC= 1.00D-01 BMatC= 9.18D-09 BMatP= 9.02D-08
 IDIUse=1 WtCom= 1.00D+00 WtEn= 0.00D+00
 Coeff-Com: -0.631D-01 0.303D+00 0.760D+00
 Coeff:     -0.631D-01 0.303D+00 0.760D+00
 Gap=     0.432 Goal=   None    Shift=    0.000
 RMSDP=1.98D-06 MaxDP=7.94D-05 DE=-2.34D-07 OVMax= 3.34D-05

 Cycle   4  Pass 1  IDiag  1:
 E= -652.638624142003     Delta-E=       -0.000000010697 Rises=F Damp=F
 DIIS: error= 2.72D-06 at cycle   4 NSaved=   4.
 NSaved= 4 IEnMin= 4 EnMin= -652.638624142003     IErMin= 4 ErrMin= 2.72D-06
 ErrMax= 2.72D-06  0.00D+00 EMaxC= 1.00D-01 BMatC= 1.73D-09 BMatP= 9.18D-09
 IDIUse=1 WtCom= 1.00D+00 WtEn= 0.00D+00
 Coeff-Com:  0.158D-01-0.130D+00 0.250D+00 0.864D+00
 Coeff:      0.158D-01-0.130D+00 0.250D+00 0.864D+00
 Gap=     0.432 Goal=   None    Shift=    0.000
 RMSDP=8.10D-07 MaxDP=1.34D-05 DE=-1.07D-08 OVMax= 1.49D-05

 Cycle   5  Pass 1  IDiag  1:
 E= -652.638624144465     Delta-E=       -0.000000002463 Rises=F Damp=F
 DIIS: error= 3.53D-07 at cycle   5 NSaved=   5.
 NSaved= 5 IEnMin= 5 EnMin= -652.638624144465     IErMin= 5 ErrMin= 3.53D-07
 ErrMax= 3.53D-07  0.00D+00 EMaxC= 1.00D-01 BMatC= 4.54D-11 BMatP= 1.73D-09
 IDIUse=1 WtCom= 1.00D+00 WtEn= 0.00D+00
 Coeff-Com:  0.504D-02-0.353D-01 0.301D-01 0.187D+00 0.814D+00
 Coeff:      0.504D-02-0.353D-01 0.301D-01 0.187D+00 0.814D+00
 Gap=     0.432 Goal=   None    Shift=    0.000
 RMSDP=2.02D-07 MaxDP=4.82D-06 DE=-2.46D-09 OVMax= 3.71D-06

 Cycle   6  Pass 1  IDiag  1:
 E= -652.638624144538     Delta-E=       -0.000000000072 Rises=F Damp=F
 DIIS: error= 2.37D-07 at cycle   6 NSaved=   6.
 NSaved= 6 IEnMin= 6 EnMin= -652.638624144538     IErMin= 6 ErrMin= 2.37D-07
 ErrMax= 2.37D-07  0.00D+00 EMaxC= 1.00D-01 BMatC= 1.58D-11 BMatP= 4.54D-11
 IDIUse=1 WtCom= 1.00D+00 WtEn= 0.00D+00
 Coeff-Com: -0.566D-03 0.748D-02-0.315D-01-0.707D-01 0.358D+00 0.737D+00
 Coeff:     -0.566D-03 0.748D-02-0.315D-01-0.707D-01 0.358D+00 0.737D+00
 Gap=     0.432 Goal=   None    Shift=    0.000
 RMSDP=1.05D-07 MaxDP=3.25D-06 DE=-7.21D-11 OVMax= 1.97D-06

 Cycle   7  Pass 1  IDiag  1:
 E= -652.638624144558     Delta-E=       -0.000000000020 Rises=F Damp=F
 DIIS: error= 6.33D-08 at cycle   7 NSaved=   7.
 NSaved= 7 IEnMin= 7 EnMin= -652.638624144558     IErMin= 7 ErrMin= 6.33D-08
 ErrMax= 6.33D-08  0.00D+00 EMaxC= 1.00D-01 BMatC= 1.69D-12 BMatP= 1.58D-11
 IDIUse=1 WtCom= 1.00D+00 WtEn= 0.00D+00
 Coeff-Com: -0.771D-03 0.687D-02-0.167D-01-0.501D-01 0.627D-01 0.301D+00
 Coeff-Com:  0.697D+00
 Coeff:     -0.771D-03 0.687D-02-0.167D-01-0.501D-01 0.627D-01 0.301D+00
 Coeff:      0.697D+00
 Gap=     0.432 Goal=   None    Shift=    0.000
 RMSDP=3.25D-08 MaxDP=8.24D-07 DE=-2.02D-11 OVMax= 6.61D-07

 Cycle   8  Pass 1  IDiag  1:
 E= -652.638624144555     Delta-E=        0.000000000003 Rises=F Damp=F
 DIIS: error= 2.39D-08 at cycle   8 NSaved=   8.
 NSaved= 8 IEnMin= 7 EnMin= -652.638624144558     IErMin= 8 ErrMin= 2.39D-08
 ErrMax= 2.39D-08  0.00D+00 EMaxC= 1.00D-01 BMatC= 2.09D-13 BMatP= 1.69D-12
 IDIUse=1 WtCom= 1.00D+00 WtEn= 0.00D+00
 Coeff-Com: -0.201D-03 0.137D-02-0.107D-02-0.723D-02-0.369D-01-0.114D-01
 Coeff-Com:  0.254D+00 0.802D+00
 Coeff:     -0.201D-03 0.137D-02-0.107D-02-0.723D-02-0.369D-01-0.114D-01
 Coeff:      0.254D+00 0.802D+00
 Gap=     0.432 Goal=   None    Shift=    0.000
 RMSDP=1.57D-08 MaxDP=4.60D-07 DE= 2.73D-12 OVMax= 3.07D-07

 Cycle   9  Pass 1  IDiag  1:
 E= -652.638624144556     Delta-E=       -0.000000000001 Rises=F Damp=F
 DIIS: error= 5.49D-09 at cycle   9 NSaved=   9.
 NSaved= 9 IEnMin= 7 EnMin= -652.638624144558     IErMin= 9 ErrMin= 5.49D-09
 ErrMax= 5.49D-09  0.00D+00 EMaxC= 1.00D-01 BMatC= 1.01D-14 BMatP= 2.09D-13
 IDIUse=1 WtCom= 1.00D+00 WtEn= 0.00D+00
 Coeff-Com:  0.534D-04-0.527D-03 0.168D-02 0.450D-02-0.117D-01-0.345D-01
 Coeff-Com: -0.356D-01 0.132D+00 0.944D+00
 Coeff:      0.534D-04-0.527D-03 0.168D-02 0.450D-02-0.117D-01-0.345D-01
 Coeff:     -0.356D-01 0.132D+00 0.944D+00
 Gap=     0.432 Goal=   None    Shift=    0.000
 RMSDP=4.86D-09 MaxDP=1.94D-07 DE=-1.14D-12 OVMax= 1.04D-07

 SCF Done:  E(RwB97XD) =  -652.638624145     A.U. after    9 cycles
            NFock=  9  Conv=0.49D-08     -V/T= 2.0047
 KE= 6.495589023738D+02 PE=-1.973911359064D+03 EE= 4.558369098496D+02
 Leave Link  502 at Tue May 12 14:12:18 2026, MaxMem=  4026531840 cpu:              16.6 elap:               1.6
 (Enter /opt/apps/eb/software/Gaussian/16.C.02-AVX2/g16/l701.exe)
 ... and contract with generalized density number  0.
 Compute integral first derivatives.
 R6Disp: Adding Grimme-D2 dispersion energy 1st derivatives to the gradient.
 Leave Link  701 at Tue May 12 14:12:18 2026, MaxMem=  4026531840 cpu:               2.2 elap:               0.3
 (Enter /opt/apps/eb/software/Gaussian/16.C.02-AVX2/g16/l702.exe)
 L702 exits ... SP integral derivatives will be done elsewhere.
 Leave Link  702 at Tue May 12 14:12:19 2026, MaxMem=  4026531840 cpu:               0.1 elap:               0.0
 (Enter /opt/apps/eb/software/Gaussian/16.C.02-AVX2/g16/l703.exe)
 Integral derivatives from FoFJK, PRISM(SPDF).
 Compute integral first derivatives, UseDBF=F ICtDFT=           0.
 Calling FoFJK, ICntrl=      2127 FMM=F ISym2X=0 I1Cent= 0 IOpClX= 0 NMat=1 NMatS=1 NMatT=0.
 FoFJK:  IHMeth= 1 ICntrl=    2127 DoSepK=T KAlg= 0 I1Cent=           0 FoldK=F
 IRaf=         1 NMat=       1 IRICut=       1 DoRegI=T DoRafI=F ISym2E= 0 IDoP0=0 IntGTp=1.
 FoFCou: FMM=F IPFlag=           0 FMFlag=      100000 FMFlg1=         800
         NFxFlg=           0 DoJE=F BraDBF=F KetDBF=F FulRan=T
         wScrn=  0.000000 ICntrl=      2527 IOpCl=  0 I1Cent=           0 NGrid=           0
         NMat0=    1 NMatS0=      1 NMatT0=    0 NMatD0=    1 NMtDS0=    0 NMtDT0=    0
 Symmetry not used in FoFCou.
 Leave Link  703 at Tue May 12 14:12:19 2026, MaxMem=  4026531840 cpu:               7.7 elap:               0.7
 (Enter /opt/apps/eb/software/Gaussian/16.C.02-AVX2/g16/l716.exe)
 Dipole        = 7.43735808D-01 1.14252633D+00 2.64698450D-01
 ***** Axes restored to original set *****
 -------------------------------------------------------------------
 Center     Atomic                   Forces (Hartrees/Bohr)
 Number     Number              X              Y              Z
 -------------------------------------------------------------------
      1        6           0.000070693   -0.000020833    0.000021874
      2        1          -0.000056958   -0.000023334   -0.000024346
      3        1          -0.000022832   -0.000030822    0.000037594
      4        6           0.000056860   -0.000038354   -0.000139566
      5        1          -0.000019551   -0.000019705    0.000018591
      6        6          -0.000066637    0.000049313    0.000047608
      7        1          -0.000011577   -0.000030857   -0.000024079
      8        1           0.000027231    0.000014420    0.000008357
      9       17          -0.000000317    0.000002426   -0.000001496
     10        8           0.000023088    0.000097746    0.000055464
 -------------------------------------------------------------------
 Cartesian Forces:  Max     0.000139566 RMS     0.000045997
 Leave Link  716 at Tue May 12 14:12:19 2026, MaxMem=  4026531840 cpu:               0.1 elap:               0.0
 (Enter /opt/apps/eb/software/Gaussian/16.C.02-AVX2/g16/l103.exe)

 GradGradGradGradGradGradGradGradGradGradGradGradGradGradGradGradGradGrad
 Berny optimization.
 Using GEDIIS/GDIIS optimizer.
 FormGI is forming the generalized inverse of G from B-inverse, IUseBI=4.
 Internal  Forces:  Max     0.000073825 RMS     0.000029261
 Search for a local minimum.
 Step number   8 out of a maximum of   49
 All quantities printed in internal units (Hartrees-Bohrs-Radians)
 RMS Force = .29261D-04 SwitMx=.10000D-02 MixMth= 2
 Mixed Optimization -- En-DIIS/RFO-DIIS
 Swapping is turned off.
 Update second derivatives using D2CorX and points    1    2    3    4    5
                                                      6    7    8
 DE= -4.01D-07 DEPred=-3.16D-07 R= 1.27D+00
 Trust test= 1.27D+00 RLast= 1.05D-02 DXMaxT set to 5.05D-01
 ITU=  0  0  1  1  1  1  1  0
     Eigenvalues ---    0.00294   0.02877   0.03218   0.05152   0.06358
     Eigenvalues ---    0.06634   0.11672   0.14700   0.16006   0.16031
     Eigenvalues ---    0.16154   0.17672   0.22440   0.23341   0.25794
     Eigenvalues ---    0.28040   0.30403   0.31291   0.32925   0.34449
     Eigenvalues ---    0.38253   0.41049   0.41540   0.48313
 En-DIIS/RFO-DIIS/Sim-DIIS IScMMF=       -3 using points:     8    7    6    5    4    3
 RFO step:  Lambda=-3.36620333D-07.
 NNeg= 0 NGDIIS= 6 SimSw=  2.50D-01 Rises=F DC= -4.01D-07 SmlDif=  1.00D-05
 NRisDI= 0 DoIntr=F SqrtH=F CThrHd= 10.0 CDAdj=  3.0
 RMS Error=  0.1324646743D-02 NUsed= 6 OKEnD=F EnDIS=F
 InvSVX:  RCond= 1.27D-08 Info=           0 Equed=N FErr=  6.17D-12 BErr=  5.10D-17
 DIIS inversion failure, remove point   6.
 InvSVX:  RCond= 1.63D-08 Info=           0 Equed=N FErr=  5.28D-12 BErr=  5.74D-17
 DIIS inversion failure, remove point   5.
 InvSVX:  RCond= 5.44D-08 Info=           0 Equed=N FErr=  1.40D-12 BErr=  7.48D-17
 DIIS inversion failure, remove point   4.
 InvSVX:  RCond= 7.77D-08 Info=           0 Equed=N FErr=  1.14D-12 BErr=  4.77D-17
 DIIS inversion failure, remove point   3.
 InvSVX:  RCond= 2.78D-05 Info=           0 Equed=N FErr=  3.68D-15 BErr=  6.31D-17
 RFO-DIIS uses    2 points instead of    6
 DidBck=F Rises=F RFO-DIIS coefs:    1.77855   -0.77855    0.00000    0.00000    0.00000
                  RFO-DIIS coefs:    0.00000
 Iteration  1 RMS(Cart)=  0.00140556 RMS(Int)=  0.00000101
 Iteration  2 RMS(Cart)=  0.00000107 RMS(Int)=  0.00000004
 Iteration  3 RMS(Cart)=  0.00000000 RMS(Int)=  0.00000004
 ITry= 1 IFail=0 DXMaxC= 3.65D-03 DCOld= 1.00D+10 DXMaxT= 5.05D-01 DXLimC= 3.00D+00 Rises=F
 Variable       Old X    -DE/DX   Delta X   Delta X   Delta X     New X
                                 (Linear)    (Quad)   (Total)
    R1        2.05817  -0.00000   0.00009  -0.00002   0.00007   2.05824
    R2        2.05579   0.00001   0.00010  -0.00002   0.00008   2.05587
    R3        2.77491   0.00001  -0.00003   0.00004   0.00001   2.77492
    R4        2.68806  -0.00007   0.00010  -0.00012  -0.00002   2.68804
    R5        2.05882   0.00002  -0.00004   0.00005   0.00000   2.05882
    R6        2.83519   0.00004  -0.00014   0.00012  -0.00002   2.83517
    R7        2.67995  -0.00006  -0.00003  -0.00017  -0.00020   2.67974
    R8        2.06124   0.00002  -0.00005   0.00003  -0.00002   2.06122
    R9        2.06257   0.00001  -0.00005  -0.00000  -0.00005   2.06252
   R10        3.40146   0.00000   0.00007  -0.00002   0.00004   3.40150
    A1        2.01858   0.00007  -0.00024   0.00042   0.00018   2.01875
    A2        2.08841  -0.00004   0.00022  -0.00019   0.00003   2.08844
    A3        2.01010  -0.00002   0.00017  -0.00031  -0.00013   2.00996
    A4        2.08419  -0.00003   0.00003  -0.00016  -0.00013   2.08405
    A5        2.01583  -0.00001  -0.00002  -0.00001  -0.00003   2.01580
    A6        2.07148  -0.00002  -0.00010  -0.00003  -0.00013   2.07135
    A7        2.09540   0.00007  -0.00035   0.00036   0.00001   2.09540
    A8        2.01648  -0.00005   0.00029  -0.00030  -0.00001   2.01647
    A9        1.99818  -0.00001  -0.00009  -0.00004  -0.00012   1.99805
   A10        2.03695   0.00005   0.00010   0.00020   0.00030   2.03725
   A11        1.92979   0.00000  -0.00014   0.00006  -0.00008   1.92972
   A12        1.93184  -0.00003   0.00010  -0.00017  -0.00007   1.93177
   A13        1.94719  -0.00000   0.00025  -0.00009   0.00016   1.94735
   A14        1.91795   0.00002  -0.00008   0.00015   0.00007   1.91802
   A15        1.87165  -0.00001  -0.00013  -0.00004  -0.00018   1.87148
   A16        1.86337   0.00002  -0.00000   0.00010   0.00010   1.86347
    D1       -2.68836  -0.00001   0.00007  -0.00036  -0.00030  -2.68866
    D2       -0.03238  -0.00002  -0.00021  -0.00038  -0.00060  -0.03298
    D3       -0.01360   0.00000   0.00001  -0.00009  -0.00007  -0.01367
    D4        2.64238  -0.00001  -0.00027  -0.00011  -0.00038   2.64200
    D5        0.56584   0.00002   0.00283   0.00012   0.00295   0.56879
    D6       -1.56370   0.00002   0.00295   0.00001   0.00296  -1.56074
    D7        2.64719   0.00001   0.00273   0.00005   0.00278   2.64997
    D8       -3.04677   0.00002   0.00246   0.00017   0.00263  -3.04414
    D9        1.10688   0.00001   0.00258   0.00005   0.00263   1.10951
   D10       -0.96542   0.00001   0.00236   0.00010   0.00245  -0.96296
   D11       -0.62093   0.00001   0.00283  -0.00004   0.00279  -0.61814
   D12       -2.75048   0.00000   0.00296  -0.00016   0.00280  -2.74768
   D13        1.46041  -0.00000   0.00273  -0.00011   0.00262   1.46303
         Item               Value     Threshold  Converged?
 Maximum Force            0.000074     0.000450     YES
 RMS     Force            0.000029     0.000300     YES
 Maximum Displacement     0.003646     0.001800     NO 
 RMS     Displacement     0.001406     0.001200     NO 
 Predicted change in Energy=-1.683140D-07
 Lowest energy point so far.  Saving SCF results.
 GradGradGradGradGradGradGradGradGradGradGradGradGradGradGradGradGradGrad

 Leave Link  103 at Tue May 12 14:12:19 2026, MaxMem=  4026531840 cpu:               0.2 elap:               0.0
 (Enter /opt/apps/eb/software/Gaussian/16.C.02-AVX2/g16/l202.exe)
                          Input orientation:                          
 ---------------------------------------------------------------------
 Center     Atomic      Atomic             Coordinates (Angstroms)
 Number     Number       Type             X           Y           Z
 ---------------------------------------------------------------------
      1          6           0        2.140029    0.290308   -0.012528
      2          1           0        2.297578    0.937470   -0.874307
      3          1           0        2.984345    0.196793    0.667141
      4          6           0        0.778982    0.073662    0.494310
      5          1           0        0.647435   -0.189960    1.543197
      6          6           0       -0.382135    0.774842   -0.146839
      7          1           0       -0.205023    0.911805   -1.214363
      8          1           0       -0.558153    1.741920    0.327516
      9         17           0       -1.903452   -0.171944    0.023994
     10          8           0        1.434724   -0.915144   -0.282322
 ---------------------------------------------------------------------
                    Distance matrix (angstroms):
                    1          2          3          4          5
     1  C    0.000000
     2  H    1.089175   0.000000
     3  H    1.087918   1.842909   0.000000
     4  C    1.468424   2.219326   2.215550   0.000000
     5  H    2.208794   3.136621   2.525510   1.089480   0.000000
     6  C    2.571793   2.781459   3.511395   1.500306   2.201609
     7  H    2.707385   2.525729   3.771388   2.142501   3.089451
     8  H    3.082692   3.201049   3.879698   2.144489   2.581373
     9  Cl   4.069981   4.436935   4.943700   2.734405   2.969062
    10  O    1.422448   2.127708   2.130542   1.418059   2.116184
                    6          7          8          9         10
     6  C    0.000000
     7  H    1.090749   0.000000
     8  H    1.091436   1.786387   0.000000
     9  Cl   1.799998   2.364889   2.358989   0.000000
    10  O    2.485033   2.625874   3.376899   3.433598   0.000000
 Stoichiometry    C3H5ClO
 Framework group  C1[X(C3H5ClO)]
 Deg. of freedom    24
 Full point group                 C1      NOp   1
 RotChk:  IX=0 Diff= 1.24D-03
 Largest Abelian subgroup         C1      NOp   1
 Largest concise Abelian subgroup C1      NOp   1
                         Standard orientation:                         
 ---------------------------------------------------------------------
 Center     Atomic      Atomic             Coordinates (Angstroms)
 Number     Number       Type             X           Y           Z
 ---------------------------------------------------------------------
      1          6           0        2.147152    0.309808   -0.015961
      2          1           0        2.301148    0.960125   -0.876006
      3          1           0        2.989673    0.224304    0.666983
      4          6           0        0.786498    0.077516    0.484966
      5          1           0        0.653574   -0.189323    1.532866
      6          6           0       -0.379565    0.767140   -0.159731
      7          1           0       -0.199627    0.907854   -1.226293
      8          1           0       -0.568008    1.731431    0.315523
      9         17           0       -1.891178   -0.196412    0.003319
     10          8           0        1.456095   -0.902771   -0.290644
 ---------------------------------------------------------------------
 Rotational constants (GHZ):          13.6391826           2.0408062           1.9029062
 Leave Link  202 at Tue May 12 14:12:19 2026, MaxMem=  4026531840 cpu:               0.0 elap:               0.0
 (Enter /opt/apps/eb/software/Gaussian/16.C.02-AVX2/g16/l301.exe)
 Standard basis: 6-31+G(d,p) (6D, 7F)
 Ernie: Thresh=  0.10000D-02 Tol=  0.10000D-05 Strict=F.
 There are   124 symmetry adapted cartesian basis functions of A   symmetry.
 There are   124 symmetry adapted basis functions of A   symmetry.
   124 basis functions,   219 primitive gaussians,   124 cartesian basis functions
    24 alpha electrons       24 beta electrons
       nuclear repulsion energy       215.8664140363 Hartrees.
 IExCor= 4639 DFT=T Ex+Corr=wB97XD ExCW=0 ScaHFX=  1.000000
 ScaDFX=  1.000000  1.000000  1.000000  1.000000 ScalE2=  1.000000  1.000000
 IRadAn=      5 IRanWt=     -1 IRanGd=            0 ICorTp=0 IEmpDi=121
 HFx  wShort=  0.000000 wLong=  0.200000 cFull=  0.222036 cShort=  0.000000 cLong=  0.777964
 DFx  wShort=  0.000000 wLong=  0.200000 cFull=  0.000000 cShort=  0.000000 cLong=  1.000000
 NAtoms=   10 NActive=   10 NUniq=   10 SFac= 1.00D+00 NAtFMM=   60 NAOKFM=F Big=F
 Integral buffers will be    131072 words long.
 Raffenetti 2 integral format.
 Two-electron integral symmetry is turned on.
 R6Disp:  Grimme-D2 Dispersion energy=       -0.0033107391 Hartrees.
 Nuclear repulsion after empirical dispersion term =      215.8631032972 Hartrees.
 Leave Link  301 at Tue May 12 14:12:19 2026, MaxMem=  4026531840 cpu:               0.1 elap:               0.0
 (Enter /opt/apps/eb/software/Gaussian/16.C.02-AVX2/g16/l302.exe)
 NPDir=0 NMtPBC=     1 NCelOv=     1 NCel=       1 NClECP=     1 NCelD=      1
         NCelK=      1 NCelE2=     1 NClLst=     1 CellRange=     0.0.
 One-electron integrals computed using PRISM.
 One-electron integral symmetry used in STVInt
 NBasis=   124 RedAO= T EigKep=  7.75D-05  NBF=   124
 NBsUse=   124 1.00D-06 EigRej= -1.00D+00 NBFU=   124
 Precomputing XC quadrature grid using
 IXCGrd= 4 IRadAn=           5 IRanWt=          -1 IRanGd=           0 AccXCQ= 1.00D-12.
 Generated NRdTot=       0 NPtTot=           0 NUsed=           0 NTot=          32
 NSgBfM=   124   124   124   124   124 MxSgAt=    10 MxSgA2=    10.
 Leave Link  302 at Tue May 12 14:12:20 2026, MaxMem=  4026531840 cpu:               1.0 elap:               0.2
 (Enter /opt/apps/eb/software/Gaussian/16.C.02-AVX2/g16/l303.exe)
 DipDrv:  MaxL=1.
 Leave Link  303 at Tue May 12 14:12:20 2026, MaxMem=  4026531840 cpu:               0.1 elap:               0.0
 (Enter /opt/apps/eb/software/Gaussian/16.C.02-AVX2/g16/l401.exe)
 Initial guess from the checkpoint file:  "/users/fsw516/Gaussian_Submission/Gau-3497943.chk"
 B after Tr=    -0.000000   -0.000000    0.000000
         Rot=    1.000000   -0.000322    0.000041   -0.000038 Ang=  -0.04 deg.
 Guess basis will be translated and rotated to current coordinates.
 JPrj=2 DoOrth=T DoCkMO=T.
 Leave Link  401 at Tue May 12 14:12:20 2026, MaxMem=  4026531840 cpu:               0.3 elap:               0.1
 (Enter /opt/apps/eb/software/Gaussian/16.C.02-AVX2/g16/l502.exe)
 Keep R1 ints in memory in canonical form, NReq=76270117.
 FoFCou: FMM=F IPFlag=           0 FMFlag=           0 FMFlg1=           0
         NFxFlg=           0 DoJE=F BraDBF=F KetDBF=F FulRan=T
         wScrn=  0.000000 ICntrl=       600 IOpCl=  0 I1Cent=           0 NGrid=           0
         NMat0=    1 NMatS0=   7750 NMatT0=    0 NMatD0=    1 NMtDS0=    0 NMtDT0=    0
 Symmetry not used in FoFCou.
 Two-electron integral symmetry not used.
 Closed shell SCF:
 Using DIIS extrapolation, IDIIS=  1040.
 NGot=  4026531840 LenX=  3966427239 LenY=  3966411422
 Requested convergence on RMS density matrix=1.00D-08 within 128 cycles.
 Requested convergence on MAX density matrix=1.00D-06.
 Requested convergence on             energy=1.00D-06.
 No special actions if energy rises.

 Cycle   1  Pass 1  IDiag  1:
 E= -652.638621949639    
 DIIS: error= 5.65D-05 at cycle   1 NSaved=   1.
 NSaved= 1 IEnMin= 1 EnMin= -652.638621949639     IErMin= 1 ErrMin= 5.65D-05
 ErrMax= 5.65D-05  0.00D+00 EMaxC= 1.00D-01 BMatC= 1.34D-06 BMatP= 1.34D-06
 IDIUse=1 WtCom= 1.00D+00 WtEn= 0.00D+00
 Coeff-Com:  0.100D+01
 Coeff:      0.100D+01
 Gap=     0.864 Goal=   None    Shift=    0.000
 RMSDP=2.15D-05 MaxDP=6.35D-04              OVMax= 3.91D-04

 Cycle   2  Pass 1  IDiag  1:
 E= -652.638624199839     Delta-E=       -0.000002250199 Rises=F Damp=F
 DIIS: error= 1.78D-05 at cycle   2 NSaved=   2.
 NSaved= 2 IEnMin= 2 EnMin= -652.638624199839     IErMin= 2 ErrMin= 1.78D-05
 ErrMax= 1.78D-05  0.00D+00 EMaxC= 1.00D-01 BMatC= 5.41D-08 BMatP= 1.34D-06
 IDIUse=1 WtCom= 1.00D+00 WtEn= 0.00D+00
 Coeff-Com: -0.193D+00 0.119D+01
 Coeff:     -0.193D+00 0.119D+01
 Gap=     0.432 Goal=   None    Shift=    0.000
 RMSDP=7.74D-06 MaxDP=2.97D-04 DE=-2.25D-06 OVMax= 1.26D-04

 Cycle   3  Pass 1  IDiag  1:
 E= -652.638624341867     Delta-E=       -0.000000142028 Rises=F Damp=F
 DIIS: error= 3.72D-06 at cycle   3 NSaved=   3.
 NSaved= 3 IEnMin= 3 EnMin= -652.638624341867     IErMin= 3 ErrMin= 3.72D-06
 ErrMax= 3.72D-06  0.00D+00 EMaxC= 1.00D-01 BMatC= 5.19D-09 BMatP= 5.41D-08
 IDIUse=1 WtCom= 1.00D+00 WtEn= 0.00D+00
 Coeff-Com: -0.603D-01 0.288D+00 0.772D+00
 Coeff:     -0.603D-01 0.288D+00 0.772D+00
 Gap=     0.432 Goal=   None    Shift=    0.000
 RMSDP=1.46D-06 MaxDP=5.21D-05 DE=-1.42D-07 OVMax= 2.31D-05

 Cycle   4  Pass 1  IDiag  1:
 E= -652.638624347919     Delta-E=       -0.000000006052 Rises=F Damp=F
 DIIS: error= 2.11D-06 at cycle   4 NSaved=   4.
 NSaved= 4 IEnMin= 4 EnMin= -652.638624347919     IErMin= 4 ErrMin= 2.11D-06
 ErrMax= 2.11D-06  0.00D+00 EMaxC= 1.00D-01 BMatC= 1.19D-09 BMatP= 5.19D-09
 IDIUse=1 WtCom= 1.00D+00 WtEn= 0.00D+00
 Coeff-Com:  0.154D-01-0.129D+00 0.283D+00 0.830D+00
 Coeff:      0.154D-01-0.129D+00 0.283D+00 0.830D+00
 Gap=     0.432 Goal=   None    Shift=    0.000
 RMSDP=6.18D-07 MaxDP=1.11D-05 DE=-6.05D-09 OVMax= 1.13D-05

 Cycle   5  Pass 1  IDiag  1:
 E= -652.638624349448     Delta-E=       -0.000000001530 Rises=F Damp=F
 DIIS: error= 5.72D-07 at cycle   5 NSaved=   5.
 NSaved= 5 IEnMin= 5 EnMin= -652.638624349448     IErMin= 5 ErrMin= 5.72D-07
 ErrMax= 5.72D-07  0.00D+00 EMaxC= 1.00D-01 BMatC= 8.69D-11 BMatP= 1.19D-09
 IDIUse=1 WtCom= 1.00D+00 WtEn= 0.00D+00
 Coeff-Com:  0.853D-02-0.637D-01 0.911D-01 0.350D+00 0.614D+00
 Coeff:      0.853D-02-0.637D-01 0.911D-01 0.350D+00 0.614D+00
 Gap=     0.432 Goal=   None    Shift=    0.000
 RMSDP=1.58D-07 MaxDP=6.39D-06 DE=-1.53D-09 OVMax= 2.63D-06

 Cycle   6  Pass 1  IDiag  1:
 E= -652.638624349531     Delta-E=       -0.000000000083 Rises=F Damp=F
 DIIS: error= 1.54D-07 at cycle   6 NSaved=   6.
 NSaved= 6 IEnMin= 6 EnMin= -652.638624349531     IErMin= 6 ErrMin= 1.54D-07
 ErrMax= 1.54D-07  0.00D+00 EMaxC= 1.00D-01 BMatC= 1.14D-11 BMatP= 8.69D-11
 IDIUse=1 WtCom= 1.00D+00 WtEn= 0.00D+00
 Coeff-Com: -0.652D-03 0.842D-02-0.364D-01-0.745D-01 0.218D+00 0.885D+00
 Coeff:     -0.652D-03 0.842D-02-0.364D-01-0.745D-01 0.218D+00 0.885D+00
 Gap=     0.432 Goal=   None    Shift=    0.000
 RMSDP=9.90D-08 MaxDP=1.91D-06 DE=-8.28D-11 OVMax= 2.12D-06

 Cycle   7  Pass 1  IDiag  1:
 E= -652.638624349551     Delta-E=       -0.000000000020 Rises=F Damp=F
 DIIS: error= 5.11D-08 at cycle   7 NSaved=   7.
 NSaved= 7 IEnMin= 7 EnMin= -652.638624349551     IErMin= 7 ErrMin= 5.11D-08
 ErrMax= 5.11D-08  0.00D+00 EMaxC= 1.00D-01 BMatC= 8.55D-13 BMatP= 1.14D-11
 IDIUse=1 WtCom= 1.00D+00 WtEn= 0.00D+00
 Coeff-Com: -0.850D-03 0.752D-02-0.192D-01-0.513D-01 0.234D-01 0.286D+00
 Coeff-Com:  0.754D+00
 Coeff:     -0.850D-03 0.752D-02-0.192D-01-0.513D-01 0.234D-01 0.286D+00
 Coeff:      0.754D+00
 Gap=     0.432 Goal=   None    Shift=    0.000
 RMSDP=3.06D-08 MaxDP=8.32D-07 DE=-2.00D-11 OVMax= 5.82D-07

 Cycle   8  Pass 1  IDiag  1:
 E= -652.638624349544     Delta-E=        0.000000000007 Rises=F Damp=F
 DIIS: error= 1.81D-08 at cycle   8 NSaved=   8.
 NSaved= 8 IEnMin= 7 EnMin= -652.638624349551     IErMin= 8 ErrMin= 1.81D-08
 ErrMax= 1.81D-08  0.00D+00 EMaxC= 1.00D-01 BMatC= 9.88D-14 BMatP= 8.55D-13
 IDIUse=1 WtCom= 1.00D+00 WtEn= 0.00D+00
 Coeff-Com: -0.162D-03 0.105D-02-0.635D-03-0.478D-02-0.233D-01-0.422D-01
 Coeff-Com:  0.215D+00 0.855D+00
 Coeff:     -0.162D-03 0.105D-02-0.635D-03-0.478D-02-0.233D-01-0.422D-01
 Coeff:      0.215D+00 0.855D+00
 Gap=     0.432 Goal=   None    Shift=    0.000
 RMSDP=1.17D-08 MaxDP=3.64D-07 DE= 6.82D-12 OVMax= 2.43D-07

 Cycle   9  Pass 1  IDiag  1:
 E= -652.638624349546     Delta-E=       -0.000000000001 Rises=F Damp=F
 DIIS: error= 4.89D-09 at cycle   9 NSaved=   9.
 NSaved= 9 IEnMin= 7 EnMin= -652.638624349551     IErMin= 9 ErrMin= 4.89D-09
 ErrMax= 4.89D-09  0.00D+00 EMaxC= 1.00D-01 BMatC= 5.90D-15 BMatP= 9.88D-14
 IDIUse=1 WtCom= 1.00D+00 WtEn= 0.00D+00
 Coeff-Com:  0.595D-04-0.582D-03 0.192D-02 0.458D-02-0.629D-02-0.360D-01
 Coeff-Com: -0.409D-01 0.152D+00 0.925D+00
 Coeff:      0.595D-04-0.582D-03 0.192D-02 0.458D-02-0.629D-02-0.360D-01
 Coeff:     -0.409D-01 0.152D+00 0.925D+00
 Gap=     0.432 Goal=   None    Shift=    0.000
 RMSDP=3.66D-09 MaxDP=1.07D-07 DE=-1.48D-12 OVMax= 7.33D-08

 SCF Done:  E(RwB97XD) =  -652.638624350     A.U. after    9 cycles
            NFock=  9  Conv=0.37D-08     -V/T= 2.0047
 KE= 6.495590478272D+02 PE=-1.973883403491D+03 EE= 4.558226280169D+02
 Leave Link  502 at Tue May 12 14:12:21 2026, MaxMem=  4026531840 cpu:              16.0 elap:               1.3
 (Enter /opt/apps/eb/software/Gaussian/16.C.02-AVX2/g16/l701.exe)
 ... and contract with generalized density number  0.
 Compute integral first derivatives.
 R6Disp: Adding Grimme-D2 dispersion energy 1st derivatives to the gradient.
 Leave Link  701 at Tue May 12 14:12:21 2026, MaxMem=  4026531840 cpu:               2.2 elap:               0.3
 (Enter /opt/apps/eb/software/Gaussian/16.C.02-AVX2/g16/l702.exe)
 L702 exits ... SP integral derivatives will be done elsewhere.
 Leave Link  702 at Tue May 12 14:12:21 2026, MaxMem=  4026531840 cpu:               0.1 elap:               0.0
 (Enter /opt/apps/eb/software/Gaussian/16.C.02-AVX2/g16/l703.exe)
 Integral derivatives from FoFJK, PRISM(SPDF).
 Compute integral first derivatives, UseDBF=F ICtDFT=           0.
 Calling FoFJK, ICntrl=      2127 FMM=F ISym2X=0 I1Cent= 0 IOpClX= 0 NMat=1 NMatS=1 NMatT=0.
 FoFJK:  IHMeth= 1 ICntrl=    2127 DoSepK=T KAlg= 0 I1Cent=           0 FoldK=F
 IRaf=         1 NMat=       1 IRICut=       1 DoRegI=T DoRafI=F ISym2E= 0 IDoP0=0 IntGTp=1.
 FoFCou: FMM=F IPFlag=           0 FMFlag=      100000 FMFlg1=         800
         NFxFlg=           0 DoJE=F BraDBF=F KetDBF=F FulRan=T
         wScrn=  0.000000 ICntrl=      2527 IOpCl=  0 I1Cent=           0 NGrid=           0
         NMat0=    1 NMatS0=      1 NMatT0=    0 NMatD0=    1 NMtDS0=    0 NMtDT0=    0
 Symmetry not used in FoFCou.
 Leave Link  703 at Tue May 12 14:12:22 2026, MaxMem=  4026531840 cpu:               8.1 elap:               0.8
 (Enter /opt/apps/eb/software/Gaussian/16.C.02-AVX2/g16/l716.exe)
 Dipole        = 7.43109275D-01 1.14169426D+00 2.65344985D-01
 ***** Axes restored to original set *****
 -------------------------------------------------------------------
 Center     Atomic                   Forces (Hartrees/Bohr)
 Number     Number              X              Y              Z
 -------------------------------------------------------------------
      1        6           0.000081254   -0.000011299    0.000017767
      2        1          -0.000053550   -0.000028891    0.000006022
      3        1          -0.000035324   -0.000021671    0.000006906
      4        6           0.000054765   -0.000011038   -0.000083038
      5        1          -0.000024349   -0.000002849    0.000025236
      6        6          -0.000074022    0.000026237    0.000018954
      7        1           0.000006099   -0.000010974   -0.000027862
      8        1           0.000006876    0.000024879    0.000017728
      9       17           0.000010590    0.000002103    0.000004422
     10        8           0.000027661    0.000033502    0.000013864
 -------------------------------------------------------------------
 Cartesian Forces:  Max     0.000083038 RMS     0.000033892
 Leave Link  716 at Tue May 12 14:12:22 2026, MaxMem=  4026531840 cpu:               0.2 elap:               0.0
 (Enter /opt/apps/eb/software/Gaussian/16.C.02-AVX2/g16/l103.exe)

 GradGradGradGradGradGradGradGradGradGradGradGradGradGradGradGradGradGrad
 Berny optimization.
 Using GEDIIS/GDIIS optimizer.
 FormGI is forming the generalized inverse of G from B-inverse, IUseBI=4.
 Internal  Forces:  Max     0.000054292 RMS     0.000023285
 Search for a local minimum.
 Step number   9 out of a maximum of   49
 All quantities printed in internal units (Hartrees-Bohrs-Radians)
 RMS Force = .23285D-04 SwitMx=.10000D-02 MixMth= 2
 Mixed Optimization -- En-DIIS/RFO-DIIS
 Swapping is turned off.
 Update second derivatives using D2CorX and points    1    2    3    4    5
                                                      6    7    8    9
 DE= -2.05D-07 DEPred=-1.68D-07 R= 1.22D+00
 Trust test= 1.22D+00 RLast= 8.27D-03 DXMaxT set to 5.05D-01
 ITU=  0  0  0  1  1  1  1  1  0
     Eigenvalues ---    0.00259   0.02856   0.03167   0.05114   0.06334
     Eigenvalues ---    0.06604   0.11158   0.14699   0.15303   0.16014
     Eigenvalues ---    0.16057   0.16799   0.21983   0.23515   0.25822
     Eigenvalues ---    0.28112   0.30572   0.31445   0.32956   0.33932
     Eigenvalues ---    0.37391   0.41046   0.41681   0.49383
 En-DIIS/RFO-DIIS/Sim-DIIS IScMMF=       -3 using points:     9    8    7    6    5    4    3
 RFO step:  Lambda=-1.19871881D-07.
 NNeg= 0 NGDIIS= 7 SimSw=  2.50D-01 Rises=F DC= -2.05D-07 SmlDif=  1.00D-05
 NRisDI= 0 DoIntr=F SqrtH=F CThrHd= 10.0 CDAdj=  3.0
 RMS Error=  0.5638425127D-03 NUsed= 7 OKEnD=F EnDIS=F
 InvSVX:  RCond= 4.51D-09 Info=           0 Equed=N FErr=  9.03D-12 BErr=  5.86D-17
 DIIS inversion failure, remove point   7.
 InvSVX:  RCond= 5.26D-09 Info=           0 Equed=N FErr=  8.19D-12 BErr=  5.84D-17
 DIIS inversion failure, remove point   6.
 InvSVX:  RCond= 7.86D-09 Info=           0 Equed=N FErr=  4.52D-12 BErr=  9.76D-17
 DIIS inversion failure, remove point   5.
 InvSVX:  RCond= 1.49D-08 Info=           0 Equed=N FErr=  2.17D-12 BErr=  7.05D-17
 DIIS inversion failure, remove point   4.
 InvSVX:  RCond= 4.43D-08 Info=           0 Equed=N FErr=  7.85D-13 BErr=  1.70D-17
 DIIS inversion failure, remove point   3.
 InvSVX:  RCond= 1.71D-05 Info=           0 Equed=N FErr=  1.96D-15 BErr=  7.51D-18
 RFO-DIIS uses    2 points instead of    7
 DidBck=F Rises=F RFO-DIIS coefs:    1.41957   -0.41957    0.00000    0.00000    0.00000
                  RFO-DIIS coefs:    0.00000    0.00000
 Iteration  1 RMS(Cart)=  0.00060604 RMS(Int)=  0.00000019
 Iteration  2 RMS(Cart)=  0.00000021 RMS(Int)=  0.00000001
 ITry= 1 IFail=0 DXMaxC= 1.75D-03 DCOld= 1.00D+10 DXMaxT= 5.05D-01 DXLimC= 3.00D+00 Rises=F
 Variable       Old X    -DE/DX   Delta X   Delta X   Delta X     New X
                                 (Linear)    (Quad)   (Total)
    R1        2.05824  -0.00003   0.00003  -0.00005  -0.00002   2.05823
    R2        2.05587  -0.00002   0.00003  -0.00004  -0.00001   2.05586
    R3        2.77492   0.00000   0.00000  -0.00001  -0.00001   2.77491
    R4        2.68804  -0.00004  -0.00001  -0.00005  -0.00006   2.68798
    R5        2.05882   0.00003   0.00000   0.00006   0.00006   2.05888
    R6        2.83517   0.00005  -0.00001   0.00010   0.00009   2.83526
    R7        2.67974  -0.00000  -0.00008  -0.00003  -0.00012   2.67963
    R8        2.06122   0.00003  -0.00001   0.00004   0.00003   2.06125
    R9        2.06252   0.00003  -0.00002   0.00005   0.00003   2.06255
   R10        3.40150  -0.00001   0.00002  -0.00003  -0.00002   3.40149
    A1        2.01875   0.00005   0.00007   0.00027   0.00034   2.01909
    A2        2.08844  -0.00005   0.00001  -0.00024  -0.00022   2.08821
    A3        2.00996  -0.00002  -0.00006  -0.00010  -0.00016   2.00981
    A4        2.08405  -0.00001  -0.00006  -0.00006  -0.00012   2.08394
    A5        2.01580  -0.00001  -0.00001  -0.00002  -0.00003   2.01577
    A6        2.07135  -0.00001  -0.00005   0.00000  -0.00005   2.07130
    A7        2.09540   0.00005   0.00000   0.00020   0.00021   2.09561
    A8        2.01647  -0.00004  -0.00000  -0.00021  -0.00021   2.01626
    A9        1.99805   0.00000  -0.00005  -0.00001  -0.00006   1.99799
   A10        2.03725   0.00003   0.00013   0.00014   0.00027   2.03752
   A11        1.92972  -0.00000  -0.00003   0.00001  -0.00002   1.92969
   A12        1.93177  -0.00001  -0.00003  -0.00004  -0.00007   1.93170
   A13        1.94735  -0.00002   0.00007  -0.00011  -0.00004   1.94731
   A14        1.91802   0.00001   0.00003   0.00009   0.00012   1.91814
   A15        1.87148   0.00001  -0.00007   0.00000  -0.00007   1.87141
   A16        1.86347   0.00001   0.00004   0.00006   0.00010   1.86356
    D1       -2.68866   0.00000  -0.00012  -0.00003  -0.00015  -2.68881
    D2       -0.03298  -0.00001  -0.00025  -0.00009  -0.00034  -0.03333
    D3       -0.01367   0.00000  -0.00003  -0.00002  -0.00005  -0.01372
    D4        2.64200  -0.00001  -0.00016  -0.00009  -0.00024   2.64176
    D5        0.56879   0.00001   0.00124   0.00008   0.00132   0.57011
    D6       -1.56074   0.00000   0.00124  -0.00001   0.00124  -1.55951
    D7        2.64997   0.00001   0.00117   0.00002   0.00119   2.65116
    D8       -3.04414   0.00001   0.00110   0.00007   0.00117  -3.04297
    D9        1.10951   0.00000   0.00110  -0.00001   0.00109   1.11060
   D10       -0.96296   0.00001   0.00103   0.00001   0.00104  -0.96192
   D11       -0.61814   0.00000   0.00117  -0.00003   0.00114  -0.61700
   D12       -2.74768  -0.00001   0.00117  -0.00012   0.00106  -2.74662
   D13        1.46303  -0.00000   0.00110  -0.00009   0.00101   1.46404
         Item               Value     Threshold  Converged?
 Maximum Force            0.000054     0.000450     YES
 RMS     Force            0.000023     0.000300     YES
 Maximum Displacement     0.001751     0.001800     YES
 RMS     Displacement     0.000606     0.001200     YES
 Predicted change in Energy=-5.993766D-08
 Optimization completed.
    -- Stationary point found.
                           ----------------------------
                           !   Optimized Parameters   !
                           ! (Angstroms and Degrees)  !
 --------------------------                            --------------------------
 ! Name  Definition              Value          Derivative Info.                !
 --------------------------------------------------------------------------------
 ! R1    R(1,2)                  1.0892         -DE/DX =    0.0                 !
 ! R2    R(1,3)                  1.0879         -DE/DX =    0.0                 !
 ! R3    R(1,4)                  1.4684         -DE/DX =    0.0                 !
 ! R4    R(1,10)                 1.4224         -DE/DX =    0.0                 !
 ! R5    R(4,5)                  1.0895         -DE/DX =    0.0                 !
 ! R6    R(4,6)                  1.5003         -DE/DX =    0.0                 !
 ! R7    R(4,10)                 1.4181         -DE/DX =    0.0                 !
 ! R8    R(6,7)                  1.0907         -DE/DX =    0.0                 !
 ! R9    R(6,8)                  1.0914         -DE/DX =    0.0                 !
 ! R10   R(6,9)                  1.8            -DE/DX =    0.0                 !
 ! A1    A(2,1,3)              115.6659         -DE/DX =    0.0001              !
 ! A2    A(2,1,4)              119.6586         -DE/DX =    0.0                 !
 ! A3    A(2,1,10)             115.1625         -DE/DX =    0.0                 !
 ! A4    A(3,1,4)              119.4075         -DE/DX =    0.0                 !
 ! A5    A(3,1,10)             115.4969         -DE/DX =    0.0                 !
 ! A6    A(1,4,5)              118.6795         -DE/DX =    0.0                 !
 ! A7    A(1,4,6)              120.0578         -DE/DX =    0.0001              !
 ! A8    A(5,4,6)              115.5352         -DE/DX =    0.0                 !
 ! A9    A(5,4,10)             114.48           -DE/DX =    0.0                 !
 ! A10   A(6,4,10)             116.7257         -DE/DX =    0.0                 !
 ! A11   A(4,6,7)              110.5647         -DE/DX =    0.0                 !
 ! A12   A(4,6,8)              110.6824         -DE/DX =    0.0                 !
 ! A13   A(4,6,9)              111.5747         -DE/DX =    0.0                 !
 ! A14   A(7,6,8)              109.8944         -DE/DX =    0.0                 !
 ! A15   A(7,6,9)              107.2277         -DE/DX =    0.0                 !
 ! A16   A(8,6,9)              106.7687         -DE/DX =    0.0                 !
 ! D1    D(2,1,4,5)           -154.0487         -DE/DX =    0.0                 !
 ! D2    D(2,1,4,6)             -1.8898         -DE/DX =    0.0                 !
 ! D3    D(3,1,4,5)             -0.7832         -DE/DX =    0.0                 !
 ! D4    D(3,1,4,6)            151.3757         -DE/DX =    0.0                 !
 ! D5    D(1,4,6,7)             32.5894         -DE/DX =    0.0                 !
 ! D6    D(1,4,6,8)            -89.4241         -DE/DX =    0.0                 !
 ! D7    D(1,4,6,9)            151.8321         -DE/DX =    0.0                 !
 ! D8    D(5,4,6,7)           -174.4164         -DE/DX =    0.0                 !
 ! D9    D(5,4,6,8)             63.5701         -DE/DX =    0.0                 !
 ! D10   D(5,4,6,9)            -55.1737         -DE/DX =    0.0                 !
 ! D11   D(10,4,6,7)           -35.417          -DE/DX =    0.0                 !
 ! D12   D(10,4,6,8)          -157.4305         -DE/DX =    0.0                 !
 ! D13   D(10,4,6,9)            83.8257         -DE/DX =    0.0                 !
 --------------------------------------------------------------------------------
 Lowest energy point so far.  Saving SCF results.
 Largest change from initial coordinates is atom    3       0.080 Angstoms.
 GradGradGradGradGradGradGradGradGradGradGradGradGradGradGradGradGradGrad

 Leave Link  103 at Tue May 12 14:12:22 2026, MaxMem=  4026531840 cpu:               0.2 elap:               0.0
 (Enter /opt/apps/eb/software/Gaussian/16.C.02-AVX2/g16/l202.exe)
                          Input orientation:                          
 ---------------------------------------------------------------------
 Center     Atomic      Atomic             Coordinates (Angstroms)
 Number     Number       Type             X           Y           Z
 ---------------------------------------------------------------------
      1          6           0        2.140029    0.290308   -0.012528
      2          1           0        2.297578    0.937470   -0.874307
      3          1           0        2.984345    0.196793    0.667141
      4          6           0        0.778982    0.073662    0.494310
      5          1           0        0.647435   -0.189960    1.543197
      6          6           0       -0.382135    0.774842   -0.146839
      7          1           0       -0.205023    0.911805   -1.214363
      8          1           0       -0.558153    1.741920    0.327516
      9         17           0       -1.903452   -0.171944    0.023994
     10          8           0        1.434724   -0.915144   -0.282322
 ---------------------------------------------------------------------
                    Distance matrix (angstroms):
                    1          2          3          4          5
     1  C    0.000000
     2  H    1.089175   0.000000
     3  H    1.087918   1.842909   0.000000
     4  C    1.468424   2.219326   2.215550   0.000000
     5  H    2.208794   3.136621   2.525510   1.089480   0.000000
     6  C    2.571793   2.781459   3.511395   1.500306   2.201609
     7  H    2.707385   2.525729   3.771388   2.142501   3.089451
     8  H    3.082692   3.201049   3.879698   2.144489   2.581373
     9  Cl   4.069981   4.436935   4.943700   2.734405   2.969062
    10  O    1.422448   2.127708   2.130542   1.418059   2.116184
                    6          7          8          9         10
     6  C    0.000000
     7  H    1.090749   0.000000
     8  H    1.091436   1.786387   0.000000
     9  Cl   1.799998   2.364889   2.358989   0.000000
    10  O    2.485033   2.625874   3.376899   3.433598   0.000000
 Stoichiometry    C3H5ClO
 Framework group  C1[X(C3H5ClO)]
 Deg. of freedom    24
 Full point group                 C1      NOp   1
 RotChk:  IX=0 Diff= 9.41D-16
 Largest Abelian subgroup         C1      NOp   1
 Largest concise Abelian subgroup C1      NOp   1
                         Standard orientation:                         
 ---------------------------------------------------------------------
 Center     Atomic      Atomic             Coordinates (Angstroms)
 Number     Number       Type             X           Y           Z
 ---------------------------------------------------------------------
      1          6           0        2.147152    0.309808   -0.015961
      2          1           0        2.301148    0.960125   -0.876006
      3          1           0        2.989673    0.224304    0.666983
      4          6           0        0.786498    0.077516    0.484966
      5          1           0        0.653574   -0.189323    1.532866
      6          6           0       -0.379565    0.767140   -0.159731
      7          1           0       -0.199627    0.907854   -1.226293
      8          1           0       -0.568008    1.731431    0.315523
      9         17           0       -1.891178   -0.196412    0.003319
     10          8           0        1.456095   -0.902771   -0.290644
 ---------------------------------------------------------------------
 Rotational constants (GHZ):          13.6391826           2.0408062           1.9029062
 Leave Link  202 at Tue May 12 14:12:22 2026, MaxMem=  4026531840 cpu:               0.0 elap:               0.0
 (Enter /opt/apps/eb/software/Gaussian/16.C.02-AVX2/g16/l601.exe)
 Copying SCF densities to generalized density rwf, IOpCl= 0 IROHF=0.

 **********************************************************************

            Population analysis using the SCF Density.

 **********************************************************************

 Orbital symmetries:
       Occupied  (A) (A) (A) (A) (A) (A) (A) (A) (A) (A) (A) (A)
                 (A) (A) (A) (A) (A) (A) (A) (A) (A) (A) (A) (A)
       Virtual   (A) (A) (A) (A) (A) (A) (A) (A) (A) (A) (A) (A)
                 (A) (A) (A) (A) (A) (A) (A) (A) (A) (A) (A) (A)
                 (A) (A) (A) (A) (A) (A) (A) (A) (A) (A) (A) (A)
                 (A) (A) (A) (A) (A) (A) (A) (A) (A) (A) (A) (A)
                 (A) (A) (A) (A) (A) (A) (A) (A) (A) (A) (A) (A)
                 (A) (A) (A) (A) (A) (A) (A) (A) (A) (A) (A) (A)
                 (A) (A) (A) (A) (A) (A) (A) (A) (A) (A) (A) (A)
                 (A) (A) (A) (A) (A) (A) (A) (A) (A) (A) (A) (A)
                 (A) (A) (A) (A)
 The electronic state is 1-A.
 Alpha  occ. eigenvalues -- -101.71145 -19.30764 -10.37911 -10.37348 -10.37014
 Alpha  occ. eigenvalues --   -9.58222  -7.33101  -7.32119  -7.32098  -1.20463
 Alpha  occ. eigenvalues --   -0.96479  -0.83408  -0.77248  -0.71242  -0.62108
 Alpha  occ. eigenvalues --   -0.58862  -0.55521  -0.51129  -0.49541  -0.48407
 Alpha  occ. eigenvalues --   -0.41345  -0.39033  -0.38458  -0.37140
 Alpha virt. eigenvalues --    0.06064   0.07826   0.08314   0.08823   0.09110
 Alpha virt. eigenvalues --    0.11299   0.12359   0.13209   0.13900   0.15095
 Alpha virt. eigenvalues --    0.16565   0.16878   0.17730   0.19502   0.20131
 Alpha virt. eigenvalues --    0.21945   0.22407   0.23960   0.25343   0.26260
 Alpha virt. eigenvalues --    0.28796   0.29805   0.33304   0.33641   0.34347
 Alpha virt. eigenvalues --    0.36344   0.38049   0.39322   0.43084   0.45246
 Alpha virt. eigenvalues --    0.63071   0.66258   0.68044   0.68762   0.69745
 Alpha virt. eigenvalues --    0.71898   0.72171   0.76175   0.77631   0.79197
 Alpha virt. eigenvalues --    0.83378   0.86727   0.91898   0.96519   0.98800
 Alpha virt. eigenvalues --    1.01558   1.03243   1.04444   1.07410   1.08902
 Alpha virt. eigenvalues --    1.10855   1.14264   1.20583   1.22873   1.30919
 Alpha virt. eigenvalues --    1.32178   1.36895   1.46555   1.48554   1.50901
 Alpha virt. eigenvalues --    1.58435   1.62932   1.69686   1.74002   1.80752
 Alpha virt. eigenvalues --    1.88953   1.97608   1.99115   2.04005   2.12978
 Alpha virt. eigenvalues --    2.14965   2.18358   2.22381   2.23749   2.30214
 Alpha virt. eigenvalues --    2.31720   2.38370   2.45140   2.47217   2.52508
 Alpha virt. eigenvalues --    2.59491   2.62892   2.74098   2.80342   2.81066
 Alpha virt. eigenvalues --    2.88468   2.89487   2.98733   3.05953   3.09723
 Alpha virt. eigenvalues --    3.36438   3.40511   3.47658   3.53261   3.61712
 Alpha virt. eigenvalues --    4.29377   4.34675   4.50122   4.59327   4.69212
          Condensed to atoms (all electrons):
               1          2          3          4          5          6
     1  C    5.454946   0.386495   0.379661  -0.339785   0.042772   0.074669
     2  H    0.386495   0.548252  -0.035394  -0.058256   0.000572   0.045774
     3  H    0.379661  -0.035394   0.534639   0.002255   0.000387  -0.004642
     4  C   -0.339785  -0.058256   0.002255   6.112784   0.297028  -0.037135
     5  H    0.042772   0.000572   0.000387   0.297028   0.531870  -0.018337
     6  C    0.074669   0.045774  -0.004642  -0.037135  -0.018337   5.550082
     7  H    0.041721   0.000405   0.000121  -0.115962   0.003645   0.418887
     8  H   -0.014887  -0.000210   0.000196  -0.017807   0.000138   0.355392
     9  Cl   0.011509   0.000119   0.000224  -0.037952   0.002017   0.203711
    10  O    0.077715  -0.039875  -0.037953   0.163494  -0.032479  -0.090222
               7          8          9         10
     1  C    0.041721  -0.014887   0.011509   0.077715
     2  H    0.000405  -0.000210   0.000119  -0.039875
     3  H    0.000121   0.000196   0.000224  -0.037953
     4  C   -0.115962  -0.017807  -0.037952   0.163494
     5  H    0.003645   0.000138   0.002017  -0.032479
     6  C    0.418887   0.355392   0.203711  -0.090222
     7  H    0.511312  -0.027100  -0.045042   0.001544
     8  H   -0.027100   0.526891  -0.041876   0.008300
     9  Cl  -0.045042  -0.041876  16.917348  -0.007253
    10  O    0.001544   0.008300  -0.007253   8.278707
 Mulliken charges:
               1
     1  C   -0.114815
     2  H    0.152118
     3  H    0.160505
     4  C    0.031336
     5  H    0.172386
     6  C   -0.498179
     7  H    0.210468
     8  H    0.210962
     9  Cl  -0.002804
    10  O   -0.321977
 Sum of Mulliken charges =  -0.00000
 Mulliken charges with hydrogens summed into heavy atoms:
               1
     1  C    0.197808
     4  C    0.203722
     6  C   -0.076749
     9  Cl  -0.002804
    10  O   -0.321977
 Electronic spatial extent (au):  <R**2>=            613.0359
 Charge=              0.0000 electrons
 Dipole moment (field-independent basis, Debye):
    X=              1.8888    Y=              2.9019    Z=              0.6744  Tot=              3.5275
 Quadrupole moment (field-independent basis, Debye-Ang):
   XX=            -37.3525   YY=            -37.8767   ZZ=            -35.6673
   XY=              2.6263   XZ=              1.0468   YZ=             -1.5812
 Traceless Quadrupole moment (field-independent basis, Debye-Ang):
   XX=             -0.3870   YY=             -0.9112   ZZ=              1.2982
   XY=              2.6263   XZ=              1.0468   YZ=             -1.5812
 Octapole moment (field-independent basis, Debye-Ang**2):
  XXX=             14.4320  YYY=              1.5350  ZZZ=             -0.5132  XYY=             -4.5534
  XXY=              2.4109  XXZ=              1.8327  XZZ=              1.9169  YZZ=              0.2382
  YYZ=              0.0216  XYZ=             -2.0449
 Hexadecapole moment (field-independent basis, Debye-Ang**3):
 XXXX=           -576.2683 YYYY=           -109.7364 ZZZZ=            -67.4826 XXXY=             14.6045
 XXXZ=              3.5367 YYYX=             -0.4009 YYYZ=              0.9415 ZZZX=              0.1508
 ZZZY=             -2.6904 XXYY=           -122.9089 XXZZ=           -112.7039 YYZZ=            -29.9811
 XXYZ=             -3.4171 YYXZ=             -1.8411 ZZXY=             -0.5048
 N-N= 2.158631032972D+02 E-N=-1.973883403022D+03  KE= 6.495590478272D+02
 No NMR shielding tensors so no spin-rotation constants.
 Leave Link  601 at Tue May 12 14:12:22 2026, MaxMem=  4026531840 cpu:               0.9 elap:               0.1
 (Enter /opt/apps/eb/software/Gaussian/16.C.02-AVX2/g16/l9999.exe)
 Unable to Open any file for archive entry.
 1\1\GINC-NODE076\FOpt\RwB97XD\6-31+G(d,p)\C3H5Cl1O1\FSW516\12-May-2026
 \0\\#p opt wb97xd/6-31+g(d,p) int=(grid=ultrafine,acc2e=12)\\3-chloro-
 1,2-propylene oxide\\0,1\C,2.140028574,0.2903083373,-0.0125276779\H,2.
 2975776042,0.9374703453,-0.8743065514\H,2.984345286,0.196792908,0.6671
 409144\C,0.7789817896,0.0736621633,0.4943097262\H,0.6474354729,-0.1899
 603691,1.5431970704\C,-0.3821347017,0.774842444,-0.14683905\H,-0.20502
 33219,0.9118050239,-1.214362641\H,-0.558153023,1.7419195269,0.32751561
 82\Cl,-1.9034518227,-0.1719440613,0.0239942006\O,1.4347241427,-0.91514
 43184,-0.2823216095\\Version=ES64L-G16RevC.02\State=1-A\HF=-652.638624
 3\RMSD=3.660e-09\RMSF=3.389e-05\Dipole=0.7565446,1.1339905,0.260367\Qu
 adrupole=-0.2390999,-0.723815,0.9629149,1.9443193,0.7671265,-1.1890811
 \PG=C01 [X(C3H5Cl1O1)]\\@
 The archive entry for this job was punched.


 If fifty million people say a stupid thing,
 it is still a stupid thing.
                   -- Anatole France
 Job cpu time:       0 days  0 hours  4 minutes 49.8 seconds.
 Elapsed time:       0 days  0 hours  0 minutes 31.6 seconds.
 File lengths (MBytes):  RWF=     22 Int=      0 D2E=      0 Chk=      3 Scr=      2
 Normal termination of Gaussian 16 at Tue May 12 14:12:23 2026.
